     Program PWSCF v.7.2 starts on 18May2023 at  0:43:25

     Reading input from HfNbTaZr_random_relax.in
Warning: card &CELL ignored
Warning: card / ignored

     Current dimensions of program PWSCF are:
     Max number of different atomic species (ntypx) = 10
     Max number of k-points (npk) =  40000
     Max angular momentum in pseudopotentials (lmaxx) =  4

     R & G space division:  proc/nbgrp/npool/nimage =      12
     Subspace diagonalization in iterative solution of the eigenvalue problem:
     a serial algorithm will be used

     Using Slab Decomposition

     bravais-lattice index     =            0
     lattice parameter (alat)  =       6.3117  a.u.
     unit-cell volume          =     251.4409 (a.u.)^3
     number of atoms/cell      =           16
     number of atomic types    =            4
     number of electrons       =       200.00
     number of Kohn-Sham states=          120
     kinetic-energy cutoff     =     120.0000  Ry
     charge density cutoff     =     480.0000  Ry
     scf convergence threshold =      1.0E-06
     mixing beta               =       0.7000
     number of iterations used =            8  plain     mixing
     energy convergence thresh.=      1.0E-04
     force convergence thresh. =      1.0E-03
     Exchange-correlation= SLA  PW   PBE  PBE
                           (   1   4   3   4   0   0   0)
     nstep                     =           50

     celldm(1)=   6.311685  celldm(2)=   0.000000  celldm(3)=   0.000000
     celldm(4)=   0.000000  celldm(5)=   0.000000  celldm(6)=   0.000000

     crystal axes: (cart. coord. in units of alat)
               a(1) = (   1.000000   0.000000   0.000000 )
               a(2) = (   0.000000   1.000000   0.000000 )
               a(3) = (   0.000000   0.000000   1.000000 )

     reciprocal axes: (cart. coord. in units 2 pi/alat)
               b(1) = (  1.000000  0.000000  0.000000 )
               b(2) = (  0.000000  1.000000  0.000000 )
               b(3) = (  0.000000  0.000000  1.000000 )

     PseudoPot. # 1 for Hf read from file:
     q-e/pseudo/hf_pbe_v1.uspp.F.UPF
     MD5 check sum: 8ee9378dfe14276e333edf04c5e4aa26
     Pseudo is Ultrasoft + core correction, Zval = 12.0
     Generated by new atomic code, or converted to UPF format
     Using radial grid of  921 points,  8 beta functions with:
                l(1) =   0
                l(2) =   0
                l(3) =   0
                l(4) =   1
                l(5) =   1
                l(6) =   2
                l(7) =   2
                l(8) =   3
     Q(r) pseudized with  6 coefficients,  rinner =    1.200   1.200   1.200
                                                       1.200   1.200   1.200
                                                       1.200

     PseudoPot. # 2 for Nb read from file:
     q-e/pseudo/nb_pbe_v1.uspp.F.UPF
     MD5 check sum: 573aab8a2fa660278ed4a62cd769473f
     Pseudo is Ultrasoft + core correction, Zval = 13.0
     Generated by new atomic code, or converted to UPF format
     Using radial grid of  887 points,  6 beta functions with:
                l(1) =   0
                l(2) =   0
                l(3) =   1
                l(4) =   1
                l(5) =   2
                l(6) =   2
     Q(r) pseudized with  6 coefficients,  rinner =    1.000   1.000   1.000
                                                       1.000   1.000

     PseudoPot. # 3 for Ta read from file:
     q-e/pseudo/ta_pbe_v1.uspp.F.UPF
     MD5 check sum: f8bbe9446314a3b8ea5d9f3e3836c939
     Pseudo is Ultrasoft + core correction, Zval = 13.0
     Generated by new atomic code, or converted to UPF format
     Using radial grid of  921 points,  7 beta functions with:
                l(1) =   0
                l(2) =   0
                l(3) =   1
                l(4) =   1
                l(5) =   2
                l(6) =   2
                l(7) =   3
     Q(r) pseudized with  6 coefficients,  rinner =    1.300   1.300   1.300
                                                       1.300   1.300   1.300
                                                       1.300

     PseudoPot. # 4 for Zr read from file:
     q-e/pseudo/zr_pbe_v1.uspp.F.UPF
     MD5 check sum: 5db81b1e868ab7776c4564c113de050b
     Pseudo is Ultrasoft + core correction, Zval = 12.0
     Generated by new atomic code, or converted to UPF format
     Using radial grid of  887 points,  6 beta functions with:
                l(1) =   0
                l(2) =   0
                l(3) =   1
                l(4) =   1
                l(5) =   2
                l(6) =   2
     Q(r) pseudized with  6 coefficients,  rinner =    1.200   1.200   1.200
                                                       1.200   1.200

     atomic species   valence    mass     pseudopotential
        Hf            12.00   178.49000     Hf( 1.00)
        Nb            13.00    92.90637     Nb( 1.00)
        Ta            13.00   180.94788     Ta( 1.00)
        Zr            12.00    91.22400     Zr( 1.00)

     No symmetry found

   Cartesian axes

     site n.     atom                  positions (alat units)
         1           Hf  tau(   1) = (   0.0000000   0.0000000   0.0000000  )
         2           Hf  tau(   2) = (   0.5000000   0.5000000   0.5000000  )
         3           Nb  tau(   3) = (   0.1820211   0.0760631  -0.2264145  )
         4           Nb  tau(   4) = (   0.2922429   0.1853833   0.6255833  )
         5           Ta  tau(   5) = (   0.2221528   0.0079234   0.6255590  )
         6           Ta  tau(   6) = (   0.7922406   0.3580087   0.0756134  )
         7           Zr  tau(   7) = (   0.0449839   0.2839728  -0.1127611  )
         8           Zr  tau(   8) = (   0.4468255   0.2223818   0.6519152  )
         9           Hf  tau(   9) = (   0.7367675   0.1623733   0.0708571  )
        10           Hf  tau(  10) = (   0.0345390   0.5543887   0.3921034  )
        11           Nb  tau(  11) = (   0.8853026   0.4149448   0.1366278  )
        12           Nb  tau(  12) = (   0.0963780   0.1618555   0.3887069  )
        13           Ta  tau(  13) = (   0.1903646  -0.0028443   0.4098051  )
        14           Ta  tau(  14) = (   0.4615869   0.7964785   0.6035101  )
        15           Zr  tau(  15) = (   0.6850296   0.4427398  -0.0478739  )
        16           Zr  tau(  16) = (   0.0497598   0.2565042   0.5104706  )

     number of k points=     1  Gaussian smearing, width (Ry)=  0.0220
                       cart. coord. in units 2pi/alat
        k(    1) = (   0.0000000   0.0000000   0.0000000), wk =   2.0000000

     Initial potential from superposition of free atoms

     starting charge     191.9760, renormalised to     200.0000

     negative rho (up, down):  1.446E-01 0.000E+00
     Starting wfcs are  208 randomized atomic wfcs

     Self-consistent Calculation

     iteration #  1     ecut=   120.00 Ry     beta= 0.70
     Davidson diagonalization with overlap
     ethr =  1.00E-02,  avg # of iterations = 10.0

     negative rho (up, down):  1.221E-01 0.000E+00

     total energy              =    -553.00003695 Ry
     estimated scf accuracy    <     195.76091057 Ry

[...]

     End of self-consistent calculation

          k = 0.0000 0.0000 0.0000 (  5575 PWs)   bands (ev):

   -92.2456 -83.0640 -45.5143 -34.7424 -24.5986 -20.0995 -19.3888 -10.6254
    -1.3924   0.7630   7.9741  12.0686  16.0724  19.5114  20.9484  21.9173
    23.4144  28.0980  31.2049  35.6481  37.2857  38.5793  40.8364  42.1496
    44.6844  45.9416  46.4427  49.5242  50.9515  53.3920  53.8962  56.4435
    58.3776  60.7190  62.3204  64.1027  65.0840  67.1640  69.2500  71.1116
    71.2429  72.2046  74.5097  74.8977  75.5654  78.4826  79.3526  80.1581
    81.8014  83.5501  84.2277  84.8713  85.7349  85.9208  87.6235  88.9406
    90.2815  91.5538  92.1698  93.0521  94.5549  95.5490  96.5889  97.9207
    98.3987  99.1175 101.0604 102.7759 104.3386 105.7198 106.9010 108.0772
   108.4069 109.6947 110.8730 112.0085 112.9522 113.5346 114.5355 115.5901
   116.9348 117.2341 118.2400 119.2858 120.4452 121.1265 122.1230 123.4526
   123.9362 124.9316 125.4447 126.4787 127.2511 128.0350 128.8476 130.2335
   130.8285 131.1953 131.8607 134.7363 134.8639 135.2832 136.4138 137.0593
   137.9577 138.6475 140.2717 141.2943 141.6721 141.8549 142.7678 143.0476
   144.4616 145.2870 146.7400 147.5549 147.8801 148.5602 149.3032 150.0077

     the Fermi energy is   134.7971 ev

!    total energy              =    -673.24290706 Ry
     estimated scf accuracy    <       0.00000031 Ry
     smearing contrib. (-TS)   =      -0.02460863 Ry
     internal energy E=F+TS    =    -673.21829842 Ry

     The total energy is F=E-TS. E is the sum of the following terms:
     one-electron contribution =     -22.38522279 Ry
     hartree contribution      =     796.92597484 Ry
     xc contribution           =    -811.92234999 Ry
     ewald contribution        =    -635.83670049 Ry

     convergence has been achieved in  12 iterations

[...]

     Forces acting on atoms (cartesian axes, Ry/au):

     atom    1 type  1   force =    -6.35588874  -70.33537746   29.78410154
     atom    2 type  1   force =    15.91214538    8.48037546  -22.98157466
     atom    3 type  2   force =   -76.87561441   27.11842488  278.87237088
     atom    4 type  2   force =   -67.81027019  177.98890025  -44.75998494
     atom    5 type  3   force =     4.87381783 -317.95415984  -82.76578268
     atom    6 type  3   force =  -280.89356059 -201.69246155 -121.38495514
     atom    7 type  4   force =    23.33073338   53.20548424  -17.68088136
     atom    8 type  4   force =   272.07547027   71.64978574   51.10633180
     atom    9 type  1   force =   -82.60221356 -162.72983356   12.31744059
     atom   10 type  1   force =     7.28451868   46.63103215   13.44297735
     atom   11 type  2   force =   409.08102037  274.72282912  279.84159747
     atom   12 type  2   force =   -45.62052176   24.44816833 -249.45351065
     atom   13 type  3   force =    64.59930795 -219.42135199 -152.64090931
     atom   14 type  3   force =    37.55219393  -16.91579917   10.69080945
     atom   15 type  4   force =  -144.26653780  122.43144418 -154.44262071
     atom   16 type  4   force =  -130.28460075  182.37253921  170.05459037
     The non-local contrib.  to forces
     atom    1 type  1   force =    -1.25352760   11.61131148   -3.51794123
     atom    2 type  1   force =    -2.51660391    4.41426109    5.75314473
     atom    3 type  2   force =     3.26152905   19.49173438    3.78891476
     atom    4 type  2   force =   -14.38288465    7.99882386   15.14576834
     atom    5 type  3   force =     6.59870645    9.25740641  -17.37842326
     atom    6 type  3   force =   -14.99449090  -39.73213641  -19.25553533
     atom    7 type  4   force =     5.86043805    1.48191781   -4.11668198
     atom    8 type  4   force =     9.33395166    3.97637195    2.08433795
     atom    9 type  1   force =    19.04088824   40.44096001   -3.01469114
     atom   10 type  1   force =    -0.96876142   -7.56597837   -1.93136401
     atom   11 type  2   force =    18.95961007   20.79930450    7.93733731
     atom   12 type  2   force =    -7.23514271   14.29796109   -7.71321428
[...]
     atom    7 type  4   force =    -0.00087539   -0.00122837    0.00015956
     atom    8 type  4   force =     0.00016576   -0.00109295    0.00004995
     atom    9 type  1   force =     0.00133486   -0.00075366    0.00001440
     atom   10 type  1   force =    -0.00109295   -0.00042623   -0.00056539
     atom   11 type  2   force =     0.00009851   -0.00090680    0.00027683
     atom   12 type  2   force =    -0.00151460   -0.00020870    0.00006494
     atom   13 type  3   force =    -0.00164201    0.00100277    0.00006038
     atom   14 type  3   force =     0.00054702    0.00143802    0.00019570
     atom   15 type  4   force =     0.00140890   -0.00083282    0.00070385
     atom   16 type  4   force =    -0.00088772   -0.00088743   -0.00003903

     Total force =  1046.567859     Total SCF correction =     0.005916

     Computing stress (Cartesian axis) and pressure

     negative rho (up, down):  9.958E-02 0.000E+00
          total   stress  (Ry/bohr**3)                   (kbar)     P=   854334.00
   5.27969727   0.07401309   0.82773230       776670.28    10887.70   121763.63
   0.07401309   6.49846880   0.79576795        10887.70   955957.76   117061.51
   0.82773230   0.79576795   5.64476753       121763.63   117061.51   830373.97

     BFGS Geometry Optimization
     Energy error            =      0.0E+00 Ry
     Gradient error          =      4.1E+02 Ry/Bohr

     number of scf cycles    =   1
     number of bfgs steps    =   0

     energy             new  =    -673.2429070587 Ry

     new trust radius        =       0.5000000000 bohr
     new conv_thr            =       0.0000010000 Ry

ATOMIC_POSITIONS (angstrom)
Hf           -0.0029676054       -0.0328400406        0.0139063888
Hf            1.6774294831        1.6739595419        1.6592697548
Nb            0.5720566228        0.2667126538       -0.6260170759
Nb            0.9444301912        0.7022843428        2.0685495512
Ta            0.7442659090       -0.1219907806        2.0507231502
Ta            2.5149326772        1.1015774577        0.1958733961
Zr            0.1611396284        0.9733112746       -0.3848773798
Zr            1.6194309552        0.7762090905        2.2012587993
Hf            2.4222358351        0.4663473645        0.2424139255
Hf            0.1187615344        1.8734305420        1.3159021010
Nb            3.1479132218        1.5141854112        0.5869965719
Nb            0.3006021021        0.5520125399        1.1818094944
Ta            0.6659795544       -0.1119491702        1.2974799716
Ta            1.5592335329        2.6523399285        2.0207152957
Zr            2.2206398097        1.5359148102       -0.2320091167
Zr            0.1053669831        0.9418750457        1.7843714973

     Writing config-only to output data dir outdir/pwscf.save/
     NEW-OLD atomic charge density approx. for the potential

[...]

     Energy error            =      5.4E+02 Ry
     Gradient error          =      1.4E+02 Ry/Bohr

[...]

     energy             old  =    -673.2429070587 Ry
     energy             new  =   -1209.1668877078 Ry

     CASE: energy            _new < energy            _old

[...]

     CASE: energy            _new > energy            _old

[...]

     CASE: energy            _new > energy            _old

     new trust radius        =       0.0963660708 bohr
     new conv_thr            =       0.0000010000 Ry

[...]

     Self-consistent Calculation

[...]

     total energy              =   -1809.78163304 Ry
     estimated scf accuracy    <       0.00000232 Ry

     iteration # 10     ecut=   120.00 Ry     beta= 0.70
     Davidson diagonalization with overlap
     ethr =  1.16E-09,  avg # of iterations =  2.0

[...]

     End of self-consistent calculation

          k = 0.0000 0.0000 0.0000 (  5575 PWs)   bands (ev):

    18.3253  29.7980  31.7654  32.3677  34.3961  34.7806  37.7965  43.1229
    46.6113  46.9714  47.5127  48.3279  48.7436  50.1642  50.8350  51.0765
    51.7391  53.1964  55.1712  60.8289  62.5747  63.4204  63.8912  65.3807
    66.2798  68.3527  71.2424  75.5154  76.4835  76.9160  80.2773  81.1233
    83.9181  84.8375  85.6523  86.5044  87.1428  87.4182  88.0963  88.8764
    89.1160  89.4152  90.3030  90.5190  91.6548  94.4934  94.9581  95.8868
    96.8692  97.8095  98.3457  98.5266  99.1937  99.4838 100.2378 100.5353
   101.4790 101.6357 102.2076 103.3531 103.5127 103.9766 105.2624 105.7869
   106.0860 106.3997 106.4789 107.4553 109.0562 109.1961 110.2513 111.8144
   111.9099 113.0892 114.7754 115.2947 116.3903 117.6043 118.5131 118.8872
   120.3374 126.2677 126.8808 127.1982 127.9956 128.1140 130.6999 135.8991
   136.0607 136.4904 137.4516 138.4865 139.8286 140.3683 141.5954 141.8343
   142.0567 142.4075 142.6238 142.8801 143.1784 144.0448 144.5149 144.8163
   145.6805 146.3036 146.4395 146.9151 147.3833 147.5496 147.8570 148.4519
   149.1981 150.1510 150.3614 151.3525 152.6866 154.6044 154.6620 155.1510

     the Fermi energy is   143.0383 ev

!    total energy              =   -1809.78163315 Ry
     estimated scf accuracy    <       0.00000062 Ry
     smearing contrib. (-TS)   =      -0.02132737 Ry
     internal energy E=F+TS    =   -1809.76030578 Ry

     The total energy is F=E-TS. E is the sum of the following terms:
     one-electron contribution =    1759.87748469 Ry
     hartree contribution      =      26.03311150 Ry
     xc contribution           =    -742.23578704 Ry
     ewald contribution        =   -2853.43511492 Ry

     convergence has been achieved in  10 iterations

[...]

     Forces acting on atoms (cartesian axes, Ry/au):

     atom    1 type  1   force =     1.25149736    0.34331009    0.53238562
     atom    2 type  1   force =    -1.40441217   -2.84478724    1.61400576
     atom    3 type  2   force =    -4.13615107   -0.73536176   -0.99416088
     atom    4 type  2   force =     0.17858990    0.61774000    0.24850981
     atom    5 type  3   force =     4.43650867    2.53856513   -1.42551689
     atom    6 type  3   force =    -6.61868504   -0.34212650   -3.24276663
     atom    7 type  4   force =     1.02014039   -0.85535941    3.80986446
     atom    8 type  4   force =     4.61787748   -0.17098939    0.09402139
     atom    9 type  1   force =    -4.06964346   -3.21706100   -1.98493157
     atom   10 type  1   force =     3.07753334    0.97384657   -0.07585037
     atom   11 type  2   force =     5.57754428    0.51634265    8.60701110
     atom   12 type  2   force =     0.55246616    1.53928365   -4.05726884
     atom   13 type  3   force =    -0.22608122   -3.94845956   -1.70814612
     atom   14 type  3   force =     2.74635182    4.08202081    0.81415190
     atom   15 type  4   force =    -6.01883989    1.49990724   -1.72542892
     atom   16 type  4   force =    -0.98469654    0.00312873   -0.50587982
     The non-local contrib.  to forces
     atom    1 type  1   force =     1.54650404   -0.00760187   -0.23607465
     atom    2 type  1   force =     0.29912527   -0.54680621    0.25570720
     atom    3 type  2   force =    -1.27134592    0.19580464   -1.58190834
     atom    4 type  2   force =     1.33433886    0.73298708    2.32348822
     atom    5 type  3   force =    -0.21478512   -1.13563530    1.01874323
     atom    6 type  3   force =     2.12873951    0.13353996   -0.98078113
     atom    7 type  4   force =    -0.11277593   -0.35948841    0.48931091
     atom    8 type  4   force =     0.69321993   -0.92471069    0.19064835
     atom    9 type  1   force =    -0.11554329    1.68804537   -0.84303413
     atom   10 type  1   force =    -1.61708209   -1.76466276    0.07251027
     atom   11 type  2   force =     0.36174187    0.23556738    1.58109902
     atom   12 type  2   force =     0.38922604    0.36676751   -0.59022086
     atom   13 type  3   force =     0.64201399    2.70376916    1.37019833
     atom   14 type  3   force =    -1.75255562   -0.79061260    0.56490259
     atom   15 type  4   force =    -1.14211838    0.08737531   -0.22998953
     atom   16 type  4   force =    -0.24065247    0.02821616   -0.04925760
     The ionic contribution  to forces
     atom    1 type  1   force =     2.37741956   -2.43673279    9.32519519
     atom    2 type  1   force =    -8.04936945    4.60150283   -7.80496596
     atom    3 type  2   force =   -17.78446899  -15.79843345   16.09172736
     atom    4 type  2   force =    -7.37457658   -0.88445582  -25.79770307
     atom    5 type  3   force =    12.76172639    4.67088432   -8.11772232
     atom    6 type  3   force =   -12.15641197    5.00461596    6.96648355
     atom    7 type  4   force =    -9.81544233   13.02091033   20.14036635
     atom    8 type  4   force =    20.33299687  -12.58313316   12.85659422
     atom    9 type  1   force =    -5.95355367   -9.90834029    9.21984050
     atom   10 type  1   force =    13.02738845    9.62774941  -13.24274057
     atom   11 type  2   force =    21.80051887   14.31225207   25.08658858
     atom   12 type  2   force =     2.35300802    7.68635309    8.43562980
     atom   13 type  3   force =    -7.25497722  -16.71560683  -11.64753472
     atom   14 type  3   force =    12.05331986   -1.69859908   -9.91782042
     atom   15 type  4   force =   -14.47061033    1.95272202  -16.69161393
     atom   16 type  4   force =    -1.84696748   -0.85168861  -14.90232457
     The local contribution  to forces
     atom    1 type  1   force =    -2.57037138    2.80595048   -8.48252094
     atom    2 type  1   force =     6.28428297   -7.09589799    9.23162321
     atom    3 type  2   force =    14.86451659   14.85660792  -15.53076487
     atom    4 type  2   force =     6.23001802    0.75161313   23.71702308
     atom    5 type  3   force =    -7.98789625   -0.90048337    5.59162665
     atom    6 type  3   force =     3.18799115   -5.50691531   -9.33617081
     atom    7 type  4   force =    10.92907072  -13.50323484  -16.76177452
     atom    8 type  4   force =   -16.35393719   13.28702071  -12.90688319
     atom    9 type  1   force =     1.80918354    4.86221307  -10.37050987
     atom   10 type  1   force =    -8.28681803   -6.82070467   12.98609383
     atom   11 type  2   force =   -16.50453831  -14.01085956  -17.94400596
     atom   12 type  2   force =    -2.17523207   -6.49626431  -11.91180967
     atom   13 type  3   force =     6.39038377    9.94866815    8.54684467
     atom   14 type  3   force =    -7.47864334    6.75813890   10.18159657
     atom   15 type  4   force =     9.52001676   -0.50536930   15.13345976
     atom   16 type  4   force =     1.08175238    0.80940697   14.40608099
     The core correction contribution to forces
     atom    1 type  1   force =    -0.10286015   -0.01701781   -0.07434398
     atom    2 type  1   force =     0.06144643    0.19512533   -0.06648082
     atom    3 type  2   force =     0.05567830    0.01272078    0.02443542
     atom    4 type  2   force =    -0.01095071    0.01649282    0.00608257
     atom    5 type  3   force =    -0.12281542   -0.09468527    0.08133270
     atom    6 type  3   force =     0.22187347    0.02502632    0.10762617
     atom    7 type  4   force =     0.01962117   -0.01530292   -0.05996211
     atom    8 type  4   force =    -0.05438319    0.05138672   -0.04769999
     atom    9 type  1   force =     0.19119202    0.14240601    0.00852643
     atom   10 type  1   force =    -0.04593860   -0.07027450    0.10942274
     atom   11 type  2   force =    -0.08049278   -0.02327729   -0.11753400
     atom   12 type  2   force =    -0.01560542   -0.01903834    0.00926342
     atom   13 type  3   force =    -0.00375182    0.11658865    0.02455323
     atom   14 type  3   force =    -0.07552403   -0.18472049   -0.01306509
     atom   15 type  4   force =     0.07423962   -0.03331888    0.06265256
     atom   16 type  4   force =     0.02106236    0.01604499    0.03909080
     The Hubbard contrib.    to forces
     atom    1 type  1   force =     0.00000000    0.00000000    0.00000000
     atom    2 type  1   force =     0.00000000    0.00000000    0.00000000
     atom    3 type  2   force =     0.00000000    0.00000000    0.00000000
     atom    4 type  2   force =     0.00000000    0.00000000    0.00000000
     atom    5 type  3   force =     0.00000000    0.00000000    0.00000000
     atom    6 type  3   force =     0.00000000    0.00000000    0.00000000
     atom    7 type  4   force =     0.00000000    0.00000000    0.00000000
     atom    8 type  4   force =     0.00000000    0.00000000    0.00000000
     atom    9 type  1   force =     0.00000000    0.00000000    0.00000000
     atom   10 type  1   force =     0.00000000    0.00000000    0.00000000
     atom   11 type  2   force =     0.00000000    0.00000000    0.00000000
     atom   12 type  2   force =     0.00000000    0.00000000    0.00000000
     atom   13 type  3   force =     0.00000000    0.00000000    0.00000000
     atom   14 type  3   force =     0.00000000    0.00000000    0.00000000
     atom   15 type  4   force =     0.00000000    0.00000000    0.00000000
     atom   16 type  4   force =     0.00000000    0.00000000    0.00000000
     The SCF correction term to forces
     atom    1 type  1   force =     0.00082397   -0.00122258    0.00013681
     atom    2 type  1   force =     0.00012128    0.00135412   -0.00187106
     atom    3 type  2   force =    -0.00051236   -0.00199633    0.00235636
     atom    4 type  2   force =    -0.00022101    0.00116813   -0.00037418
     atom    5 type  3   force =     0.00029775   -0.00144992    0.00050966
     atom    6 type  3   force =    -0.00085853    0.00167190    0.00008241
     atom    7 type  4   force =    -0.00031456    0.00182177    0.00193064
     atom    8 type  4   force =    -0.00000026   -0.00148764    0.00136882
     atom    9 type  1   force =    -0.00090338   -0.00131983    0.00025232
     atom   10 type  1   force =     0.00000229    0.00180443   -0.00112984
     atom   11 type  2   force =     0.00033331    0.00272539    0.00087027
     atom   12 type  2   force =     0.00108826    0.00153104   -0.00012472
     atom   13 type  3   force =     0.00026873   -0.00181336   -0.00220082
     atom   14 type  3   force =    -0.00022636   -0.00212058   -0.00145493
     atom   15 type  4   force =    -0.00034889   -0.00143659    0.00006903
     atom   16 type  4   force =     0.00012734    0.00121455    0.00053737

     Total force =    20.148796     Total SCF correction =     0.008599

     Computing stress (Cartesian axis) and pressure

     negative rho (up, down):  2.838E-01 0.000E+00
          total   stress  (Ry/bohr**3)                   (kbar)     P=   296433.05
   2.01261991   0.00202906   0.04030914       296066.61      298.48     5929.68
   0.00202906   2.00479236   0.00849674          298.48   294915.14     1249.91
   0.04030914   0.00849674   2.02792052         5929.68     1249.91   298317.41

     Energy error            =      7.4E-01 Ry
     Gradient error          =      8.6E+00 Ry/Bohr

     number of scf cycles    =  50
     number of bfgs steps    =  29

     energy             old  =   -1809.0459184703 Ry
     energy             new  =   -1809.7816331509 Ry

     CASE: energy            _new < energy            _old

     new trust radius        =       0.2890982125 bohr

     The maximum number of steps has been reached.

     End of BFGS Geometry Optimization

ATOMIC_POSITIONS (angstrom)
Hf            0.1788362485       -0.7113444211        0.4273176140
Hf            0.9251002792        1.8853151082        1.3604556196
Nb            1.0866352168        0.2024801305       -0.2815189831
Nb            1.6553906113        0.8677726847        2.1776409377
Ta            0.0623245091       -0.7769941252        2.4038789976
Ta            1.8531508126        1.0520274449        0.6999208109
Zr            0.9154934771        1.7303732143       -0.3427197133
Zr            2.5415747948        0.2639387475        2.9673194988
Hf            1.9207422149       -0.7848896698        0.3835760536
Hf           -0.5922073796        1.7612168588        1.4983458616
Nb            2.4062135865        1.5820543355       -0.4846134034
Nb            0.1272914661        0.9009224535        0.5179771879
Ta            0.9276600191        0.0150530864        1.3711330259
Ta            2.6584262129        3.3670380056        1.4351710611
Zr            1.8402691410        2.5561228778       -1.0344706470
Zr            0.2645492247        0.8522932802        2.2769524035

     Writing config-only to output data dir outdir/pwscf.save/
     NEW-OLD atomic charge density approx. for the potential

     negative rho (up, down):  2.875E-01 0.000E+00

     Writing all to output data dir outdir/pwscf.save/

     General routines

     Parallel routines

   This run was terminated on:   0:57:47  18May2023

   JOB DONE.