     Program PWSCF v.7.2 starts on  4Jun2023 at 17:10: 2

     Reading input from md_Hf5Ta6Nb16Zr8H.in
Warning: card &CELL ignored
Warning: card / ignored

     Current dimensions of program PWSCF are:
     Max number of different atomic species (ntypx) = 10
     Max number of k-points (npk) =  40000
     Max angular momentum in pseudopotentials (lmaxx) =  4

     gamma-point specific algorithms are used

     R & G space division:  proc/nbgrp/npool/nimage =      12
     Subspace diagonalization in iterative solution of the eigenvalue problem:
     one sub-group per band group will be used

     Using Slab Decomposition

     bravais-lattice index     =            0
     lattice parameter (alat)  =      13.9462  a.u.
     unit-cell volume          =    3925.3696 (a.u.)^3
     number of atoms/cell      =           36
     number of atomic types    =            5
     number of electrons       =       443.00
     number of Kohn-Sham states=          266
     kinetic-energy cutoff     =     120.0000  Ry
     charge density cutoff     =     480.0000  Ry
     scf convergence threshold =      1.0E-06
     mixing beta               =       0.7000
     number of iterations used =            8  TF        mixing
     energy convergence thresh.=      0.0E+00
     force convergence thresh. =      0.0E+00
     Exchange-correlation=  SLA  PW   PBX  PBC
                           (   1   4   3   4   0   0   0)
     nstep                     =            1

     celldm(1)=  13.946178  celldm(2)=   0.000000  celldm(3)=   0.000000
     celldm(4)=   0.000000  celldm(5)=   0.000000  celldm(6)=   0.000000

     crystal axes: (cart. coord. in units of alat)
               a(1) = (   1.000000   0.000000   0.000000 )
               a(2) = (   0.000000   1.000000   0.000000 )
               a(3) = (   0.000000   0.000000   1.447154 )

     reciprocal axes: (cart. coord. in units 2 pi/alat)
               b(1) = (  1.000000  0.000000  0.000000 )
               b(2) = (  0.000000  1.000000  0.000000 )
               b(3) = (  0.000000  0.000000  0.691011 )

     PseudoPot. # 1 for Hf read from file:
     q-e/pseudo/hf_pbe_v1.uspp.F.UPF
     MD5 check sum: 8ee9378dfe14276e333edf04c5e4aa26
     Pseudo is Ultrasoft + core correction, Zval = 12.0
     Generated by new atomic code, or converted to UPF format
     Using radial grid of  921 points,  8 beta functions with:
                l(1) =   0
                l(2) =   0
                l(3) =   0
                l(4) =   1
                l(5) =   1
                l(6) =   2
                l(7) =   2
                l(8) =   3
     Q(r) pseudized with  6 coefficients,  rinner =    1.200   1.200   1.200
                                                       1.200   1.200   1.200
                                                       1.200

     PseudoPot. # 2 for Ta read from file:
     q-e/pseudo/ta_pbe_v1.uspp.F.UPF
     MD5 check sum: f8bbe9446314a3b8ea5d9f3e3836c939
     Pseudo is Ultrasoft + core correction, Zval = 13.0
     Generated by new atomic code, or converted to UPF format
     Using radial grid of  921 points,  7 beta functions with:
                l(1) =   0
                l(2) =   0
                l(3) =   1
                l(4) =   1
                l(5) =   2
                l(6) =   2
                l(7) =   3
     Q(r) pseudized with  6 coefficients,  rinner =    1.300   1.300   1.300
                                                       1.300   1.300   1.300
                                                       1.300

     PseudoPot. # 3 for Nb read from file:
     q-e/pseudo/nb_pbe_v1.uspp.F.UPF
     MD5 check sum: 573aab8a2fa660278ed4a62cd769473f
     Pseudo is Ultrasoft + core correction, Zval = 13.0
     Generated by new atomic code, or converted to UPF format
     Using radial grid of  887 points,  6 beta functions with:
                l(1) =   0
                l(2) =   0
                l(3) =   1
                l(4) =   1
                l(5) =   2
                l(6) =   2
     Q(r) pseudized with  6 coefficients,  rinner =    1.000   1.000   1.000
                                                       1.000   1.000

     PseudoPot. # 4 for Zr read from file:
     q-e/pseudo/zr_pbe_v1.uspp.F.UPF
     MD5 check sum: 5db81b1e868ab7776c4564c113de050b
     Pseudo is Ultrasoft + core correction, Zval = 12.0
     Generated by new atomic code, or converted to UPF format
     Using radial grid of  887 points,  6 beta functions with:
                l(1) =   0
                l(2) =   0
                l(3) =   1
                l(4) =   1
                l(5) =   2
                l(6) =   2
     Q(r) pseudized with  6 coefficients,  rinner =    1.200   1.200   1.200
                                                       1.200   1.200

     PseudoPot. # 5 for H  read from file:
     q-e/pseudo/h_pbe_v1.4.uspp.F.UPF
     MD5 check sum: 761ae9a214b05c3daf00ab9f6b793d6f
     Pseudo is Ultrasoft, Zval =  1.0
     Generated by new atomic code, or converted to UPF format
     Using radial grid of  615 points,  2 beta functions with:
                l(1) =   0
                l(2) =   0
     Q(r) pseudized with  8 coefficients,  rinner =    0.700

     atomic species   valence    mass     pseudopotential
        Hf            12.00   178.49000     Hf( 1.00)
        Ta            13.00   180.94788     Ta( 1.00)
        Nb            13.00    92.90637     Nb( 1.00)
        Zr            12.00    91.22400     Zr( 1.00)
        H              1.00     2.01400     H ( 1.00)

     Starting magnetic structure
     atomic species   magnetization
        Hf           0.000
        Ta           0.000
        Nb           0.000
        Zr           0.000
        H            0.000

     No symmetry found

   Cartesian axes

     site n.     atom                  positions (alat units)
         1           Hf  tau(   1) = (   0.2533875   0.7059621   0.9498645  )
         2           Hf  tau(   2) = (   0.4796748   0.0271003   0.7235772  )
         3           Hf  tau(   3) = (   0.4796748   0.9322493   0.7235772  )
         4           Hf  tau(   4) = (   0.0271003   0.4796748   0.2710027  )
         5           Hf  tau(   5) = (   0.9322493   0.4796748   0.2710027  )
         6           Ta  tau(   6) = (   0.4796748   0.0271003   0.2710027  )
         7           Ta  tau(   7) = (   0.4796748   0.9322493   0.2710027  )
         8           Ta  tau(   8) = (   0.7059621   0.2533875   0.9498645  )
         9           Ta  tau(   9) = (   0.7059621   0.7059621   0.4972900  )
        10           Ta  tau(  10) = (   0.0271003   0.4796748   1.1761518  )
        11           Ta  tau(  11) = (   0.9322493   0.4796748   1.1761518  )
        12           Nb  tau(  12) = (   0.2533875   0.2533875   0.9498645  )
        13           Nb  tau(  13) = (   0.4796748   0.4796748   0.7235772  )
        14           Nb  tau(  14) = (   0.4796748   0.4796748   1.1761518  )
        15           Nb  tau(  15) = (   0.4796748   0.0271003   1.1761518  )
        16           Nb  tau(  16) = (   0.4796748   0.9322493   1.1761518  )
        17           Nb  tau(  17) = (   0.7059621   0.7059621   0.9498645  )
        18           Nb  tau(  18) = (   0.0271003   0.4796748   0.7235772  )
        19           Nb  tau(  19) = (   0.9322493   0.4796748   0.7235772  )
        20           Nb  tau(  20) = (   0.0271003   0.0271003   0.7235772  )
        21           Nb  tau(  21) = (   0.0271003   0.9322493   0.7235772  )
        22           Nb  tau(  22) = (   0.9322493   0.0271003   0.7235772  )
        23           Nb  tau(  23) = (   0.9322493   0.9322493   0.7235772  )
        24           Nb  tau(  24) = (   0.0271003   0.0271003   0.2710027  )
        25           Nb  tau(  25) = (   0.0271003   0.9322493   0.2710027  )
        26           Nb  tau(  26) = (   0.9322493   0.0271003   0.2710027  )
        27           Nb  tau(  27) = (   0.9322493   0.9322493   0.2710027  )
        28           Zr  tau(  28) = (   0.2533875   0.2533875   0.4972900  )
        29           Zr  tau(  29) = (   0.2533875   0.7059621   0.4972900  )
        30           Zr  tau(  30) = (   0.4796748   0.4796748   0.2710027  )
        31           Zr  tau(  31) = (   0.7059621   0.2533875   0.4972900  )
        32           Zr  tau(  32) = (   0.0271003   0.0271003   1.1761518  )
        33           Zr  tau(  33) = (   0.0271003   0.9322493   1.1761518  )
        34           Zr  tau(  34) = (   0.9322493   0.0271003   1.1761518  )
        35           Zr  tau(  35) = (   0.9322493   0.9322493   1.1761518  )
        36           H   tau(  36) = (   0.4796748   1.2032520   0.7235772  )

     number of k points=     1  Gaussian smearing, width (Ry)=  0.0220
                       cart. coord. in units 2pi/alat
        k(    1) = (   0.0000000   0.0000000   0.0000000), wk =   1.0000000

     Check: negative core charge=   -0.000002
     Generating pointlists ...
     new r_m :   0.0391 (alat units)  0.5457 (a.u.) for type    1
     new r_m :   0.0391 (alat units)  0.5457 (a.u.) for type    2
     new r_m :   0.0391 (alat units)  0.5457 (a.u.) for type    3
     new r_m :   0.0391 (alat units)  0.5457 (a.u.) for type    4
     new r_m :   0.0727 (alat units)  1.0134 (a.u.) for type    5

     Initial potential from superposition of free atoms

     starting charge     432.9324, renormalised to     443.0000

     negative rho (up, down):  3.790E-01 3.790E-01
     Starting wfcs are  456 randomized atomic wfcs

     Self-consistent Calculation

     iteration #  1     ecut=   120.00 Ry     beta= 0.70
     Davidson diagonalization with overlap
     ethr =  1.00E-02,  avg # of iterations =  9.0

     negative rho (up, down):  4.814E-01 4.813E-01

     total energy              =   -3256.59853659 Ry
     estimated scf accuracy    <     714.11503048 Ry

     total magnetization       =     0.00 Bohr mag/cell
     absolute magnetization    =     0.18 Bohr mag/cell

[...]

     total energy              =   -3362.58912356 Ry
     estimated scf accuracy    <       0.00000125 Ry

[...]

     iteration # 24     ecut=   120.00 Ry     beta= 0.70
     Davidson diagonalization with overlap
     ethr =  2.82E-10,  avg # of iterations =  6.0

[...]

     Magnetic moment per site  (integrated on atomic sphere of radius R)
     atom   1 (R=0.039)  charge=  0.0280  magn= -0.0000
     atom   2 (R=0.039)  charge=  0.2729  magn= -0.0000
     atom   3 (R=0.039)  charge=  0.2740  magn= -0.0000
     atom   4 (R=0.039)  charge=  0.2778  magn= -0.0000
     atom   5 (R=0.039)  charge=  0.2775  magn= -0.0000
     atom   6 (R=0.039)  charge=  0.3910  magn= -0.0000
     atom   7 (R=0.039)  charge=  0.3915  magn= -0.0000
     atom   8 (R=0.039)  charge=  0.0809  magn= -0.0000
     atom   9 (R=0.039)  charge=  0.0813  magn= -0.0000
     atom  10 (R=0.039)  charge=  0.3912  magn= -0.0000
     atom  11 (R=0.039)  charge=  0.3915  magn= -0.0000
     atom  12 (R=0.039)  charge=  0.3674  magn= -0.0000
     atom  13 (R=0.039)  charge=  0.3666  magn= -0.0000
     atom  14 (R=0.039)  charge=  0.3670  magn= -0.0002
     atom  15 (R=0.039)  charge=  0.9018  magn= -0.0000
     atom  16 (R=0.039)  charge=  0.9026  magn= -0.0000
[...]
     atom   35 type  4   force =  -217.63085767 -218.16893354   35.86204635
     atom   36 type  5   force =    -0.02165113    4.08140540   -0.13017670
     The local contribution  to forces
     atom    1 type  1   force =   -15.15154984   14.24920273  -21.11749679
     atom    2 type  1   force =     0.45343602  -23.98415294    0.62563045
     atom    3 type  1   force =     0.75632254   28.17883318    0.29039322
     atom    4 type  1   force =   -29.15132714    0.12871094   34.58514585
     atom    5 type  1   force =    28.42662034    0.29149561   34.75379510
     atom    6 type  2   force =     0.27586279  -33.84681075   36.99581361
     atom    7 type  2   force =     0.44688113   33.49249177   37.06843116
     atom    8 type  2   force =    15.89203717  -15.55173474  -23.50436747
     atom    9 type  2   force =    17.43796347   17.53400638   23.42593386
     atom   10 type  2   force =   -33.49096784   -0.44108957  -38.38745675
     atom   11 type  2   force =    32.71073245   -0.27809010  -38.56355573
     atom   12 type  3   force =   -16.14455271  -16.12254813  -23.38566244
     atom   13 type  3   force =     0.82061495   -1.50283329    1.43677802
     atom   14 type  3   force =     0.44159432   -0.49809589  -40.17787084
     atom   15 type  3   force =     0.28004650  -63.18158276  -37.78439520
     atom   16 type  3   force =     0.44328158   64.11733439  -37.53833566
     atom   17 type  3   force =    17.01611124   15.73790117  -23.16343863
     atom   18 type  3   force =   -62.68783827   -0.35835831    1.20270440
     atom   19 type  3   force =    61.25925923   -0.04624816    1.20137262
     atom   20 type  3   force =  -112.32473075 -111.33127307   -0.56012252
     atom   21 type  3   force =  -112.64722345  112.04063822   -0.82288737
     atom   22 type  3   force =   111.44466949 -111.55231560   -0.56061205
     atom   23 type  3   force =   111.20557371  111.69867127   -0.82419086
     atom   24 type  3   force =  -112.82781398 -113.09768219   38.91803617
     atom   25 type  3   force =  -112.95075684  112.84744378   38.96876134
     atom   26 type  3   force =   112.33442937 -113.20480094   39.00444415
     atom   27 type  3   force =   112.17929845  112.68020998   39.15494531
     atom   28 type  4   force =   -15.81082954  -16.65201267   22.19248629
     atom   29 type  4   force =   -16.20132721   16.50258361   21.30293208
     atom   30 type  4   force =     0.40210185    0.21602045   36.12876362
     atom   31 type  4   force =    15.87118192  -16.46527704   22.27424565
     atom   32 type  4   force =   -91.09196452  -90.54084867  -35.75720336
     atom   33 type  4   force =   -91.26134710   91.24681882  -35.57284663
     atom   34 type  4   force =    90.63037859  -90.63938002  -35.80886044
     atom   35 type  4   force =    90.53959187   91.08280982  -35.74703899
     atom   36 type  5   force =     0.01964206   -3.57069976    0.13271750
     The core correction contribution to forces
     atom    1 type  1   force =    -0.01756778    0.01509181    0.00382615
     atom    2 type  1   force =     0.00103662   -9.57564438   -0.00120102
     atom    3 type  1   force =    -0.00035822    9.62979489   -0.00023294
     atom    4 type  1   force =    -9.62378792    0.00088699    0.01647422
     atom    5 type  1   force =     9.62620365   -0.00089441    0.01331393
     atom    6 type  2   force =     0.00070376   -5.11964040    0.00648697
     atom    7 type  2   force =     0.00024762    5.11945895    0.00688403
     atom    8 type  2   force =     0.01969091   -0.02131380    0.00395187
     atom    9 type  2   force =     0.02325708    0.01808628   -0.00188335
     atom   10 type  2   force =    -5.12246365    0.00002366   -0.00755655
     atom   11 type  2   force =     5.12149460    0.00108075   -0.00796528
     atom   12 type  3   force =    -0.00900580   -0.00971788    0.00072132
     atom   13 type  3   force =    -0.00032575    0.00084372   -0.00106319
     atom   14 type  3   force =    -0.00064011    0.00082532    0.01730946
     atom   15 type  3   force =    -0.00018347   -1.08402411   -0.00174981
     atom   16 type  3   force =     0.00041968    1.08489810   -0.00178910
     atom   17 type  3   force =     0.01014579    0.00937404    0.00017661
     atom   18 type  3   force =    -1.08123633   -0.00001899   -0.00161750
     atom   19 type  3   force =     1.07975132    0.00017015   -0.00150882
     atom   20 type  3   force =    -1.08451054   -1.08635754    0.00061434
     atom   21 type  3   force =    -1.08442301    1.08687936    0.00009978
     atom   22 type  3   force =     1.08428413   -1.08580249    0.00052587
     atom   23 type  3   force =     1.08383662    1.08604720    0.00003971
     atom   24 type  3   force =    -1.08404172   -1.08200144    0.00259504
     atom   25 type  3   force =    -1.08398544    1.08189475    0.00244608
     atom   26 type  3   force =     1.08417741   -1.08156575    0.00245417
     atom   27 type  3   force =     1.08384384    1.08132396    0.00309905
     atom   28 type  4   force =    -0.00825469   -0.00638983   -0.00147591
     atom   29 type  4   force =    -0.00762014    0.00576765   -0.00227793
     atom   30 type  4   force =    -0.00129140   -0.00053253   -0.00821805
     atom   31 type  4   force =     0.00765377   -0.00599083   -0.00185114
     atom   32 type  4   force =    -1.41654658   -1.41691421    0.00226514
     atom   33 type  4   force =    -1.41648805    1.41634959    0.00294525
     atom   34 type  4   force =     1.41624834   -1.41635025    0.00338965
     atom   35 type  4   force =     1.41698664    1.41643833    0.00220033
     atom   36 type  5   force =     0.00000000    0.00000000    0.00000000
     The Hubbard contrib.    to forces
     atom    1 type  1   force =     0.00000000    0.00000000    0.00000000
     atom    2 type  1   force =     0.00000000    0.00000000    0.00000000
     atom    3 type  1   force =     0.00000000    0.00000000    0.00000000
     atom    4 type  1   force =     0.00000000    0.00000000    0.00000000
     atom    5 type  1   force =     0.00000000    0.00000000    0.00000000
     atom    6 type  2   force =     0.00000000    0.00000000    0.00000000
     atom    7 type  2   force =     0.00000000    0.00000000    0.00000000
     atom    8 type  2   force =     0.00000000    0.00000000    0.00000000
     atom    9 type  2   force =     0.00000000    0.00000000    0.00000000
     atom   10 type  2   force =     0.00000000    0.00000000    0.00000000
     atom   11 type  2   force =     0.00000000    0.00000000    0.00000000
     atom   12 type  3   force =     0.00000000    0.00000000    0.00000000
     atom   13 type  3   force =     0.00000000    0.00000000    0.00000000
     atom   14 type  3   force =     0.00000000    0.00000000    0.00000000
     atom   15 type  3   force =     0.00000000    0.00000000    0.00000000
     atom   16 type  3   force =     0.00000000    0.00000000    0.00000000
     atom   17 type  3   force =     0.00000000    0.00000000    0.00000000
     atom   18 type  3   force =     0.00000000    0.00000000    0.00000000
     atom   19 type  3   force =     0.00000000    0.00000000    0.00000000
     atom   20 type  3   force =     0.00000000    0.00000000    0.00000000
     atom   21 type  3   force =     0.00000000    0.00000000    0.00000000
     atom   22 type  3   force =     0.00000000    0.00000000    0.00000000
     atom   23 type  3   force =     0.00000000    0.00000000    0.00000000
     atom   24 type  3   force =     0.00000000    0.00000000    0.00000000
     atom   25 type  3   force =     0.00000000    0.00000000    0.00000000
     atom   26 type  3   force =     0.00000000    0.00000000    0.00000000
     atom   27 type  3   force =     0.00000000    0.00000000    0.00000000
     atom   28 type  4   force =     0.00000000    0.00000000    0.00000000
     atom   29 type  4   force =     0.00000000    0.00000000    0.00000000
     atom   30 type  4   force =     0.00000000    0.00000000    0.00000000
     atom   31 type  4   force =     0.00000000    0.00000000    0.00000000
     atom   32 type  4   force =     0.00000000    0.00000000    0.00000000
     atom   33 type  4   force =     0.00000000    0.00000000    0.00000000
     atom   34 type  4   force =     0.00000000    0.00000000    0.00000000
     atom   35 type  4   force =     0.00000000    0.00000000    0.00000000
     atom   36 type  5   force =     0.00000000    0.00000000    0.00000000
     The SCF correction term to forces
     atom    1 type  1   force =     0.00000000    0.00000000   -0.00000000
     atom    2 type  1   force =    -0.00000000   -0.00000000   -0.00000000
     atom    3 type  1   force =     0.00000000   -0.00000000   -0.00000000
     atom    4 type  1   force =    -0.00000000   -0.00000000    0.00000000
     atom    5 type  1   force =    -0.00000000   -0.00000000    0.00000000
     atom    6 type  2   force =     0.00000000   -0.00000000    0.00000000
     atom    7 type  2   force =     0.00000000    0.00000000    0.00000000
     atom    8 type  2   force =    -0.00000000   -0.00000000   -0.00000000
     atom    9 type  2   force =    -0.00000000    0.00000000    0.00000000
     atom   10 type  2   force =    -0.00000000    0.00000000   -0.00000000
     atom   11 type  2   force =     0.00000000    0.00000000   -0.00000000
     atom   12 type  3   force =     0.00000000   -0.00000000   -0.00000000
     atom   13 type  3   force =     0.00000000    0.00000000   -0.00000000
     atom   14 type  3   force =     0.00000000    0.00000000   -0.00000000
     atom   15 type  3   force =    -0.00000000   -0.00000000   -0.00000000
     atom   16 type  3   force =     0.00000000    0.00000000   -0.00000000
     atom   17 type  3   force =    -0.00000000    0.00000000   -0.00000000
     atom   18 type  3   force =     0.00000000    0.00000000   -0.00000000
     atom   19 type  3   force =    -0.00000000    0.00000000   -0.00000000
     atom   20 type  3   force =     0.00000000   -0.00000000    0.00000000
     atom   21 type  3   force =     0.00000000   -0.00000000    0.00000000
     atom   22 type  3   force =    -0.00000000   -0.00000000    0.00000000
     atom   23 type  3   force =    -0.00019442   -0.00023572    0.00005069
     atom   24 type  3   force =     0.00006352   -0.00008185    0.00018389
     atom   25 type  3   force =     0.00005338    0.00001980    0.00023766
     atom   26 type  3   force =    -0.00020940   -0.00006701    0.00017058
     atom   27 type  3   force =    -0.00020046    0.00000352    0.00022852
     atom   28 type  4   force =     0.00028274   -0.00003976    0.00046594
     atom   29 type  4   force =     0.00028138    0.00006034    0.00052064
     atom   30 type  4   force =     0.00014667    0.00002731    0.00079490
     atom   31 type  4   force =    -0.00027290    0.00002270    0.00038095
     atom   32 type  4   force =     0.00000786   -0.00012738   -0.00017954
     atom   33 type  4   force =    -0.00001761    0.00002405   -0.00024734
     atom   34 type  4   force =     0.00000951   -0.00013646   -0.00011680
     atom   35 type  4   force =    -0.00000382   -0.00000478   -0.00020029
     atom   36 type  5   force =    -0.00000346    0.00000838   -0.00000997

     Total force =   530.259840     Total SCF correction =     0.001442

     Molecular Dynamics Calculation

     Starting temperature  =   300.00 K

     temperature is set once at start

     mass Hf               =   178.49
     mass Ta               =   180.95
     mass Nb               =    92.91
     mass Zr               =    91.22
     mass H                =     2.01
     Time step             =     2.10 a.u.,  0.1016 femto-seconds

     Entering Dynamics:    iteration =     1
                           time      =   0.0001 pico-seconds

ATOMIC_POSITIONS (angstrom)
Hf            1.8699999570        5.2099998710        7.0099998710    0   0   0
Hf            3.5399999140        0.2000000000        5.3399999140    0   0   0
Hf            3.5399999140        6.8799998280        5.3399999140    0   0   0
Hf            0.2000000000        3.5399999140        2.0000000000    0   0   0
Hf            6.8799998280        3.5399999140        2.0000000000    0   0   0
Ta            3.5399999140        0.2000000000        2.0000000000    0   0   0
Ta            3.5399999140        6.8799998280        2.0000000000    0   0   0
Ta            5.2099998710        1.8699999570        7.0099998710    0   0   0
Ta            5.2099998710        5.2099998710        3.6699999570    0   0   0
Ta            0.2000000000        3.5399999140        8.6799998280    0   0   0
Ta            6.8799998280        3.5399999140        8.6799998280    0   0   0
Nb            1.8699999570        1.8699999570        7.0099998710    0   0   0
Nb            3.5399999140        3.5399999140        5.3399999140    0   0   0
Nb            3.5399999140        3.5399999140        8.6799998280    0   0   0
Nb            3.5399999140        0.2000000000        8.6799998280    0   0   0
Nb            3.5399999140        6.8799998280        8.6799998280    0   0   0
Nb            5.2099998710        5.2099998710        7.0099998710    0   0   0
Nb            0.2000000000        3.5399999140        5.3399999140    0   0   0
Nb            6.8799998280        3.5399999140        5.3399999140    0   0   0
Nb            0.2000000000        0.2000000000        5.3399999140    0   0   0
Nb            0.2000000000        6.8799998280        5.3399999140    0   0   0
Nb            6.8799998280        0.2000000000        5.3399999140    0   0   0
Nb            6.8782318217        6.8782304676        5.3399999477
Nb            0.2017683156        0.2017664261        1.9999996574
Nb            0.2017680224        6.8782335118        1.9999996246
Nb            6.8782316145        0.2017660730        1.9999996124
Nb            6.8782316775        6.8782335803        1.9999995712
Zr            1.8699998923        1.8700001629        3.6699998002
Zr            1.8700000717        5.2099996259        3.6699998979
Zr            3.5400001286        3.5400001524        2.0000005987
Zr            5.2099999908        1.8700003004        3.6699999611
Zr            0.2016947757        0.2016945698        8.6800003351
Zr            0.2016944472        6.8783055020        8.6800001637
Zr            6.8783052585        0.2016943706        8.6800002966
Zr            6.8783051336        6.8783052979        8.6800003293
H             3.5399977865        8.8802465876        5.3127610646

     kinetic energy (Ekin) =           0.55137389 Ry
     temperature           =        4145.47868793 K
     Ekin + Etot (const)   =       -3362.03776276 Ry

     File outdir/pwscf.msd.dat deleted, as requested

     The maximum number of steps has been reached.

     End of molecular dynamics calculation

     diffusion coefficients :
     atom     1   D =       0.00000000 cm^2/s
     atom     2   D =       0.00000000 cm^2/s
     atom     3   D =       0.00000000 cm^2/s
     atom     4   D =       0.00000000 cm^2/s
     atom     5   D =       0.00000000 cm^2/s
     atom     6   D =       0.00000000 cm^2/s
     atom     7   D =       0.00000000 cm^2/s
     atom     8   D =       0.00000000 cm^2/s
     atom     9   D =       0.00000000 cm^2/s
     atom    10   D =       0.00000000 cm^2/s
     atom    11   D =       0.00000000 cm^2/s
     atom    12   D =       0.00000000 cm^2/s
     atom    13   D =       0.00000000 cm^2/s
     atom    14   D =       0.00000000 cm^2/s
     atom    15   D =       0.00000000 cm^2/s
     atom    16   D =       0.00000000 cm^2/s
     atom    17   D =       0.00000000 cm^2/s
     atom    18   D =       0.00000000 cm^2/s
     atom    19   D =       0.00000000 cm^2/s
     atom    20   D =       0.00000000 cm^2/s
     atom    21   D =       0.00000000 cm^2/s
     atom    22   D =       0.00000000 cm^2/s
     atom    23   D =       0.00000103 cm^2/s
     atom    24   D =       0.00000102 cm^2/s
     atom    25   D =       0.00000102 cm^2/s
     atom    26   D =       0.00000102 cm^2/s
     atom    27   D =       0.00000102 cm^2/s
     atom    28   D =       0.00000000 cm^2/s
     atom    29   D =       0.00000000 cm^2/s
     atom    30   D =       0.00000000 cm^2/s
     atom    31   D =       0.00000000 cm^2/s
     atom    32   D =       0.00000094 cm^2/s
     atom    33   D =       0.00000094 cm^2/s
     atom    34   D =       0.00000094 cm^2/s
     atom    35   D =       0.00000094 cm^2/s
     atom    36   D =       0.00012173 cm^2/s

     < D > =       0.00000933 cm^2/s

     Writing all to output data dir outdir/pwscf.save/

     General routines

     Parallel routines

   This run was terminated on:  17:36:49   4Jun2023

   JOB DONE.