     Program PWSCF v.7.2 starts on  4Jun2023 at  2:29:37

     Reading input from relax_Hf5Ta6Nb16Zr8.in
Warning: card &CELL ignored
Warning: card / ignored

     Current dimensions of program PWSCF are:
     Max number of different atomic species (ntypx) = 10
     Max number of k-points (npk) =  40000
     Max angular momentum in pseudopotentials (lmaxx) =  4

     gamma-point specific algorithms are used

     R & G space division:  proc/nbgrp/npool/nimage =      12
     Subspace diagonalization in iterative solution of the eigenvalue problem:
     one sub-group per band group will be used

     Using Slab Decomposition

     bravais-lattice index     =            0
     lattice parameter (alat)  =      13.9462  a.u.
     unit-cell volume          =    2712.4745 (a.u.)^3
     number of atoms/cell      =           35
     number of atomic types    =            4
     number of electrons       =       442.00
     number of Kohn-Sham states=          265
     kinetic-energy cutoff     =     120.0000  Ry
     charge density cutoff     =     960.0000  Ry
     scf convergence threshold =      1.0E-06
     mixing beta               =       0.7000
     number of iterations used =            8  plain     mixing
     energy convergence thresh.=      1.0E-03
     force convergence thresh. =      1.0E-02
     Exchange-correlation= SLA  PW   PBE  PBE
                           (   1   4   3   4   0   0   0)
     nstep                     =           50

     celldm(1)=  13.946178  celldm(2)=   0.000000  celldm(3)=   0.000000
     celldm(4)=   0.000000  celldm(5)=   0.000000  celldm(6)=   0.000000

     crystal axes: (cart. coord. in units of alat)
               a(1) = (   1.000000   0.000000   0.000000 )
               a(2) = (   0.000000   1.000000   0.000000 )
               a(3) = (   0.000000   0.000000   1.000000 )

     reciprocal axes: (cart. coord. in units 2 pi/alat)
               b(1) = (  1.000000  0.000000  0.000000 )
               b(2) = (  0.000000  1.000000  0.000000 )
               b(3) = (  0.000000  0.000000  1.000000 )

     PseudoPot. # 1 for Hf read from file:
     q-e/pseudo/hf_pbe_v1.uspp.F.UPF
     MD5 check sum: 8ee9378dfe14276e333edf04c5e4aa26
     Pseudo is Ultrasoft + core correction, Zval = 12.0
     Generated by new atomic code, or converted to UPF format
     Using radial grid of  921 points,  8 beta functions with:
                l(1) =   0
                l(2) =   0
                l(3) =   0
                l(4) =   1
                l(5) =   1
                l(6) =   2
                l(7) =   2
                l(8) =   3
     Q(r) pseudized with  6 coefficients,  rinner =    1.200   1.200   1.200
                                                       1.200   1.200   1.200
                                                       1.200

     PseudoPot. # 2 for Ta read from file:
     q-e/pseudo/ta_pbe_v1.uspp.F.UPF
     MD5 check sum: f8bbe9446314a3b8ea5d9f3e3836c939
     Pseudo is Ultrasoft + core correction, Zval = 13.0
     Generated by new atomic code, or converted to UPF format
     Using radial grid of  921 points,  7 beta functions with:
                l(1) =   0
                l(2) =   0
                l(3) =   1
                l(4) =   1
                l(5) =   2
                l(6) =   2
                l(7) =   3
     Q(r) pseudized with  6 coefficients,  rinner =    1.300   1.300   1.300
                                                       1.300   1.300   1.300
                                                       1.300

     PseudoPot. # 3 for Nb read from file:
     q-e/pseudo/nb_pbe_v1.uspp.F.UPF
     MD5 check sum: 573aab8a2fa660278ed4a62cd769473f
     Pseudo is Ultrasoft + core correction, Zval = 13.0
     Generated by new atomic code, or converted to UPF format
     Using radial grid of  887 points,  6 beta functions with:
                l(1) =   0
                l(2) =   0
                l(3) =   1
                l(4) =   1
                l(5) =   2
                l(6) =   2
     Q(r) pseudized with  6 coefficients,  rinner =    1.000   1.000   1.000
                                                       1.000   1.000

     PseudoPot. # 4 for Zr read from file:
     q-e/pseudo/zr_pbe_v1.uspp.F.UPF
     MD5 check sum: 5db81b1e868ab7776c4564c113de050b
     Pseudo is Ultrasoft + core correction, Zval = 12.0
     Generated by new atomic code, or converted to UPF format
     Using radial grid of  887 points,  6 beta functions with:
                l(1) =   0
                l(2) =   0
                l(3) =   1
                l(4) =   1
                l(5) =   2
                l(6) =   2
     Q(r) pseudized with  6 coefficients,  rinner =    1.200   1.200   1.200
                                                       1.200   1.200

     atomic species   valence    mass     pseudopotential
        Hf            12.00   178.49000     Hf( 1.00)
        Ta            13.00   180.94788     Ta( 1.00)
        Nb            13.00    92.90637     Nb( 1.00)
        Zr            12.00    91.22400     Zr( 1.00)

     No symmetry found

   Cartesian axes

     site n.     atom                  positions (alat units)
         1           Hf  tau(   1) = (   0.2533875   0.7059621   0.7059621  )
         2           Hf  tau(   2) = (   0.4796748   0.0271003   0.4796748  )
         3           Hf  tau(   3) = (   0.4796748   0.9322493   0.4796748  )
         4           Hf  tau(   4) = (   0.0271003   0.4796748   0.0271003  )
         5           Hf  tau(   5) = (   0.9322493   0.4796748   0.0271003  )
         6           Ta  tau(   6) = (   0.4796748   0.0271003   0.0271003  )
         7           Ta  tau(   7) = (   0.4796748   0.9322493   0.0271003  )
         8           Ta  tau(   8) = (   0.7059621   0.2533875   0.7059621  )
         9           Ta  tau(   9) = (   0.7059621   0.7059621   0.2533875  )
        10           Ta  tau(  10) = (   0.0271003   0.4796748   0.9322493  )
        11           Ta  tau(  11) = (   0.9322493   0.4796748   0.9322493  )
        12           Nb  tau(  12) = (   0.2533875   0.2533875   0.7059621  )
        13           Nb  tau(  13) = (   0.4796748   0.4796748   0.4796748  )
        14           Nb  tau(  14) = (   0.4796748   0.4796748   0.9322493  )
        15           Nb  tau(  15) = (   0.4796748   0.0271003   0.9322493  )
        16           Nb  tau(  16) = (   0.4796748   0.9322493   0.9322493  )
        17           Nb  tau(  17) = (   0.7059621   0.7059621   0.7059621  )
        18           Nb  tau(  18) = (   0.0271003   0.4796748   0.4796748  )
        19           Nb  tau(  19) = (   0.9322493   0.4796748   0.4796748  )
        20           Nb  tau(  20) = (   0.0271003   0.0271003   0.4796748  )
        21           Nb  tau(  21) = (   0.0271003   0.9322493   0.4796748  )
        22           Nb  tau(  22) = (   0.9322493   0.0271003   0.4796748  )
        23           Nb  tau(  23) = (   0.9322493   0.9322493   0.4796748  )
        24           Nb  tau(  24) = (   0.0271003   0.0271003   0.0271003  )
        25           Nb  tau(  25) = (   0.0271003   0.9322493   0.0271003  )
        26           Nb  tau(  26) = (   0.9322493   0.0271003   0.0271003  )
        27           Nb  tau(  27) = (   0.9322493   0.9322493   0.0271003  )
        28           Zr  tau(  28) = (   0.2533875   0.2533875   0.2533875  )
        29           Zr  tau(  29) = (   0.2533875   0.7059621   0.2533875  )
        30           Zr  tau(  30) = (   0.4796748   0.4796748   0.0271003  )
        31           Zr  tau(  31) = (   0.7059621   0.2533875   0.2533875  )
        32           Zr  tau(  32) = (   0.0271003   0.0271003   0.9322493  )
        33           Zr  tau(  33) = (   0.0271003   0.9322493   0.9322493  )
        34           Zr  tau(  34) = (   0.9322493   0.0271003   0.9322493  )
        35           Zr  tau(  35) = (   0.9322493   0.9322493   0.9322493  )

     number of k points=     1  Gaussian smearing, width (Ry)=  0.0220
                       cart. coord. in units 2pi/alat
        k(    1) = (   0.0000000   0.0000000   0.0000000), wk =   2.0000000

     Initial potential from superposition of free atoms

     starting charge     431.9324, renormalised to     442.0000

     negative rho (up, down):  5.519E-01 0.000E+00
     Starting wfcs are  455 randomized atomic wfcs

     Self-consistent Calculation

     iteration #  1     ecut=   120.00 Ry     beta= 0.70
     Davidson diagonalization with overlap
     ethr =  1.00E-02,  avg # of iterations = 14.0

     negative rho (up, down):  7.136E-01 0.000E+00

     total energy              =    -424.13812336 Ry
     estimated scf accuracy    <    3009.61311234 Ry

[...]

     End of self-consistent calculation

          k = 0.0000 0.0000 0.0000 ( 30123 PWs)   bands (ev):

  -370.8105-207.4673-176.6680-147.2655-144.9190-143.6543-140.8944-140.8883
  -139.0719-134.8240-117.0100-110.7013-109.4394-106.5932 -89.0957 -87.4573
   -86.3166 -86.3055 -81.2363 -81.2113 -80.8364 -79.3732 -71.4034 -67.3805
   -62.0935 -58.8446 -56.3514 -55.8601 -47.4386 -45.3649 -45.3340 -43.7461
   -43.6820 -42.4042 -42.1760 -41.1701 -40.1458 -40.1223 -39.8768 -39.8664
   -39.1322 -38.4645 -36.7057 -36.6157 -36.4731 -36.4005 -36.1645 -36.0838
   -35.2938 -35.2841 -34.2624 -33.2270 -32.4834 -32.4707 -32.3240 -31.0981
   -31.0642 -28.9912 -28.8607 -27.9611 -26.5846 -25.9456 -25.1959 -23.6233
   -23.1292 -23.0189 -23.0043 -22.6901 -21.6959 -20.2469 -19.5016 -19.0442
   -17.5189 -15.5897 -12.3023 -12.2733 -11.3564 -10.9964 -10.8738 -10.7003
    -9.3011  -9.0477  -8.9783  -8.8900  -8.8304  -8.8215  -8.6651  -8.6149
    -8.5483  -8.4952  -8.4850  -8.3455  -8.3216  -6.9084  -5.9712  -5.4345
    -5.3679  -5.3174  -5.2049  -5.1682  -5.0776  -5.0721  -5.0449  -4.9594
    -4.5908  -4.4844  -4.2833  -4.1433  -4.0769  -3.9900  -3.7941  -2.7482
    -2.5121  -1.4909  -1.3349  -1.2682  -1.2583  -1.2333  -1.1866  -1.1415
    -1.0908  -1.0505  -0.9365   1.0613   1.6167   1.6415   2.5915   2.9982
     3.0680   3.9154   4.1753   4.3112   4.3317   5.6676   5.7821   5.9087
     6.8724   6.9290   7.0792   7.5417   7.6186   7.8806   8.1007   8.1506
     9.9863  10.0752  10.5255  11.1014  11.2521  11.4746  12.1096  12.4067
    13.2280  13.3555  13.5173  13.5288  14.4135  14.7654  14.8247  14.9804
    15.0688  15.2912  15.7013  15.7619  15.7822  16.6272  17.1811  18.1541
    18.8115  18.8587  18.9999  19.0610  19.1476  19.2243  19.3009  19.4256
    19.5239  19.6227  19.6705  19.8435  19.8616  19.8853  19.9259  20.2526
    20.7530  21.1546  21.2236  21.2392  21.3721  21.6182  22.0383  22.1428
    22.2666  22.3266  22.4907  22.8786  23.1461  23.1906  23.2256  23.4153
    23.5542  23.5645  23.8292  24.1415  24.2432  24.3496  24.4685  24.5144
    24.6521  24.6712  24.7747  25.1129  25.1563  25.3197  25.6677  25.8524
    26.1925  26.2586  26.2944  26.3570  26.4616  26.5286  26.5962  26.6017
    26.6575  26.6969  26.7734  26.8523  27.1466  27.1839  27.2353  27.4010
    27.5526  27.5876  27.6296  27.8003  27.8550  27.8869  27.9723  27.9982
    28.1137  28.1834  28.2725  28.3167  28.4080  28.5004  28.6995  28.7726
    28.8942  28.9592  29.0483  29.1326  29.2933  29.3817  29.6399  29.6979
[...]
     The ionic contribution  to forces
     atom    1 type  1   force =     3.91320288   -0.92739162    0.48486764
     atom    2 type  1   force =     0.95710079   -0.23066710   -0.99327557
     atom    3 type  1   force =    -3.90789498    3.10566099    0.53972492
     atom    4 type  1   force =     3.84680667   -0.18679124    1.52430514
     atom    5 type  1   force =    -2.24885235   -1.21561064    2.40278924
     atom    6 type  2   force =     6.91327186    1.71835668   -2.34871564
     atom    7 type  2   force =    -5.37179432   -3.74844158   -5.06327160
     atom    8 type  2   force =    -7.56352222   -0.60432146   -0.92292793
     atom    9 type  2   force =    -3.38824677    3.45190420    0.15210917
     atom   10 type  2   force =     6.05438223   -1.41248018    0.63889122
     atom   11 type  2   force =    -2.52049457    0.62539319   -0.71998639
     atom   12 type  3   force =     2.84593858   -1.48923394    1.11299978
     atom   13 type  3   force =    -1.70741887   -6.41811384   -1.18661627
     atom   14 type  3   force =     2.49719666   -0.93516633    0.95322263
     atom   15 type  3   force =    -7.05221777    1.85426741    1.03196723
     atom   16 type  3   force =     1.80297767    2.13204572   -0.35461071
     atom   17 type  3   force =    -6.35595857   -1.95156761    2.30012874
     atom   18 type  3   force =     6.47927003    0.97607807    1.20751523
     atom   19 type  3   force =    -2.27337564   -2.53891204   -1.72270589
     atom   20 type  3   force =     5.76640513   -0.14961084   -0.43679327
     atom   21 type  3   force =     2.26107646   -0.84510009    3.37137132
     atom   22 type  3   force =     0.44273163    1.17109838    0.70703375
     atom   23 type  3   force =    -2.27288434    3.09610186   -0.43539211
     atom   24 type  3   force =     4.78080691    1.38328579    2.53247876
     atom   25 type  3   force =     3.17323216   -2.20590916   -1.55974626
     atom   26 type  3   force =    -6.45370297    5.73936894   -0.68057865
     atom   27 type  3   force =     0.86161740   -0.56079626    0.95573988
     atom   28 type  4   force =    -0.83475007    1.85745235    0.15991683
     atom   29 type  4   force =    -3.67002861    0.69414244    2.10576318
     atom   30 type  4   force =     2.55008376   -0.65805088   -0.95026519
     atom   31 type  4   force =    -5.56752403    0.04727895    0.38147732
     atom   32 type  4   force =     6.11851907    0.84071299   -2.09841291
     atom   33 type  4   force =     3.53656332    0.64316832    0.03974671
     atom   34 type  4   force =    -4.71165764   -3.39342267   -0.22019553
     atom   35 type  4   force =     1.09914049    0.13527119   -2.90855479
     The local contribution  to forces
     atom    1 type  1   force =    -3.96310521    0.97224379   -0.42323276
     atom    2 type  1   force =    -1.06326390    0.15784924    1.08962680
     atom    3 type  1   force =     3.79098797   -2.83517852   -0.38757450
     atom    4 type  1   force =    -3.95568052    0.33877827   -1.48714796
     atom    5 type  1   force =     2.41351044    1.14695628   -2.36032462
     atom    6 type  2   force =    -6.74350100   -1.56487584    2.11785618
     atom    7 type  2   force =     5.23150113    3.75742170    4.98720284
     atom    8 type  2   force =     7.49324139    0.60445960    0.81190879
     atom    9 type  2   force =     3.37002946   -3.35867785   -0.25482626
     atom   10 type  2   force =    -6.16911776    1.40759115   -0.62388533
     atom   11 type  2   force =     2.21289494   -0.57556353    0.96029112
     atom   12 type  3   force =    -2.82336363    1.51162149   -1.25518355
     atom   13 type  3   force =     1.81707572    6.28831129    1.25641904
     atom   14 type  3   force =    -2.38645176    1.05504570   -0.92737313
     atom   15 type  3   force =     6.90501491   -1.78125919   -0.94528168
     atom   16 type  3   force =    -1.63837758   -2.21807721    0.48635767
     atom   17 type  3   force =     6.34963508    2.06781792   -2.35578036
     atom   18 type  3   force =    -6.51440434   -0.98406346   -1.39702337
     atom   19 type  3   force =     2.24437726    2.61048330    1.75562884
     atom   20 type  3   force =    -5.77130939    0.12090482    0.28579727
     atom   21 type  3   force =    -2.26401769    0.82850664   -3.34439180
     atom   22 type  3   force =    -0.38993410   -1.20095997   -0.60234444
     atom   23 type  3   force =     2.31538988   -2.95919263    0.20707873
     atom   24 type  3   force =    -4.79985369   -1.33206980   -2.15989905
     atom   25 type  3   force =    -2.99982304    2.06191279    1.50947607
     atom   26 type  3   force =     6.29363282   -5.60584465    0.79821702
     atom   27 type  3   force =    -0.97284730    0.44649959   -0.71610396
     atom   28 type  4   force =     0.82594939   -1.84263864   -0.22395901
     atom   29 type  4   force =     3.69865919   -0.81403779   -2.08825243
     atom   30 type  4   force =    -2.61543725    0.66866758    0.86980525
     atom   31 type  4   force =     5.71648045   -0.08484269   -0.36452613
     atom   32 type  4   force =    -6.00015591   -0.89658622    2.00395853
     atom   33 type  4   force =    -3.55057667   -0.77429463   -0.05043432
     atom   34 type  4   force =     4.69041141    3.32955638    0.28901491
     atom   35 type  4   force =    -1.00713688   -0.07065187    2.69070300
     The core correction contribution to forces
     atom    1 type  1   force =    -0.01276784    0.00772429   -0.01028314
     atom    2 type  1   force =     0.00497482    0.00693180   -0.00228324
     atom    3 type  1   force =    -0.00573540   -0.01120792   -0.00139488
     atom    4 type  1   force =     0.00447873   -0.01035821    0.00322107
     atom    5 type  1   force =    -0.00807630   -0.00062634    0.00061155
     atom    6 type  2   force =    -0.01050543   -0.00440885    0.01137979
     atom    7 type  2   force =     0.00459734   -0.00454556    0.00272142
     atom    8 type  2   force =     0.00870663   -0.00553129    0.00797988
     atom    9 type  2   force =    -0.00177643   -0.00517548    0.01124115
     atom   10 type  2   force =     0.00160894   -0.00031968   -0.01252095
     atom   11 type  2   force =     0.00499396   -0.00434544   -0.00802952
     atom   12 type  3   force =     0.00455242   -0.00205063   -0.00231172
     atom   13 type  3   force =     0.00209464    0.00116802    0.00698974
     atom   14 type  3   force =     0.00488039    0.00207236   -0.00211698
     atom   15 type  3   force =    -0.00433483    0.00309688    0.00222588
     atom   16 type  3   force =    -0.00013959   -0.00257233    0.00395447
     atom   17 type  3   force =    -0.00117888    0.00273384   -0.00238481
     atom   18 type  3   force =    -0.00400701   -0.00190699   -0.00726227
     atom   19 type  3   force =     0.00000134    0.00088722    0.00126779
     atom   20 type  3   force =    -0.00073055    0.00025687   -0.00191601
     atom   21 type  3   force =    -0.00316383   -0.00035465   -0.00118987
     atom   22 type  3   force =     0.00100077   -0.00043049    0.00626706
     atom   23 type  3   force =     0.00021594    0.00393735   -0.00651845
     atom   24 type  3   force =    -0.00216301    0.00185389    0.00786076
     atom   25 type  3   force =     0.00093057   -0.00139398    0.00412901
     atom   26 type  3   force =    -0.00226863    0.00272900    0.00371026
     atom   27 type  3   force =    -0.00108221   -0.00022563    0.00279426
     atom   28 type  4   force =     0.00246829    0.00058763   -0.00306594
     atom   29 type  4   force =     0.00316209   -0.00319577    0.00028016
     atom   30 type  4   force =    -0.00466324    0.00245176    0.00029590
     atom   31 type  4   force =     0.00361726    0.00005018    0.00130739
     atom   32 type  4   force =     0.00032714   -0.00217193   -0.00335872
     atom   33 type  4   force =     0.00036533   -0.00407726    0.00032474
     atom   34 type  4   force =     0.00156862   -0.00174632    0.00116901
     atom   35 type  4   force =     0.00173951    0.00387993   -0.00669929
     The Hubbard contrib.    to forces
     atom    1 type  1   force =     0.00000000    0.00000000    0.00000000
     atom    2 type  1   force =     0.00000000    0.00000000    0.00000000
     atom    3 type  1   force =     0.00000000    0.00000000    0.00000000
     atom    4 type  1   force =     0.00000000    0.00000000    0.00000000
     atom    5 type  1   force =     0.00000000    0.00000000    0.00000000
     atom    6 type  2   force =     0.00000000    0.00000000    0.00000000
     atom    7 type  2   force =     0.00000000    0.00000000    0.00000000
     atom    8 type  2   force =     0.00000000    0.00000000    0.00000000
     atom    9 type  2   force =     0.00000000    0.00000000    0.00000000
     atom   10 type  2   force =     0.00000000    0.00000000    0.00000000
     atom   11 type  2   force =     0.00000000    0.00000000    0.00000000
     atom   12 type  3   force =     0.00000000    0.00000000    0.00000000
     atom   13 type  3   force =     0.00000000    0.00000000    0.00000000
     atom   14 type  3   force =     0.00000000    0.00000000    0.00000000
     atom   15 type  3   force =     0.00000000    0.00000000    0.00000000
     atom   16 type  3   force =     0.00000000    0.00000000    0.00000000
     atom   17 type  3   force =     0.00000000    0.00000000    0.00000000
     atom   18 type  3   force =     0.00000000    0.00000000    0.00000000
     atom   19 type  3   force =     0.00000000    0.00000000    0.00000000
     atom   20 type  3   force =     0.00000000    0.00000000    0.00000000
     atom   21 type  3   force =     0.00000000    0.00000000    0.00000000
     atom   22 type  3   force =     0.00000000    0.00000000    0.00000000
     atom   23 type  3   force =     0.00000000    0.00000000    0.00000000
     atom   24 type  3   force =     0.00000000    0.00000000    0.00000000
     atom   25 type  3   force =     0.00000000    0.00000000    0.00000000
     atom   26 type  3   force =     0.00000000    0.00000000    0.00000000
     atom   27 type  3   force =     0.00000000    0.00000000    0.00000000
     atom   28 type  4   force =     0.00000000    0.00000000    0.00000000
     atom   29 type  4   force =     0.00000000    0.00000000    0.00000000
     atom   30 type  4   force =     0.00000000    0.00000000    0.00000000
     atom   31 type  4   force =     0.00000000    0.00000000    0.00000000
     atom   32 type  4   force =     0.00000000    0.00000000    0.00000000
     atom   33 type  4   force =     0.00000000    0.00000000    0.00000000
     atom   34 type  4   force =     0.00000000    0.00000000    0.00000000
     atom   35 type  4   force =     0.00000000    0.00000000    0.00000000
     The SCF correction term to forces
     atom    1 type  1   force =     0.00017430    0.00005886    0.00012219
     atom    2 type  1   force =    -0.00020854    0.00005239    0.00016311
     atom    3 type  1   force =     0.00002793   -0.00008629   -0.00002159
     atom    4 type  1   force =    -0.00014333    0.00008660    0.00014262
     atom    5 type  1   force =     0.00011716   -0.00029696    0.00040356
     atom    6 type  2   force =    -0.00029710    0.00029952    0.00001479
     atom    7 type  2   force =     0.00017949   -0.00023867   -0.00021146
     atom    8 type  2   force =     0.00012490   -0.00043147    0.00014564
     atom    9 type  2   force =    -0.00002793    0.00058549   -0.00002733
     atom   10 type  2   force =    -0.00008124   -0.00034813   -0.00044201
     atom   11 type  2   force =     0.00006679   -0.00025982   -0.00005559
     atom   12 type  3   force =     0.00023112   -0.00026784    0.00047065
     atom   13 type  3   force =    -0.00033039   -0.00014908   -0.00021419
     atom   14 type  3   force =    -0.00031548    0.00003131    0.00016296
     atom   15 type  3   force =     0.00023982    0.00056524    0.00003527
     atom   16 type  3   force =     0.00012359    0.00014662    0.00015838
     atom   17 type  3   force =    -0.00028088    0.00029745    0.00023848
     atom   18 type  3   force =    -0.00012412   -0.00021089   -0.00047006
     atom   19 type  3   force =     0.00023447   -0.00036724   -0.00063455
     atom   20 type  3   force =    -0.00013062    0.00004585   -0.00008463
     atom   21 type  3   force =     0.00013506    0.00024203    0.00021452
     atom   22 type  3   force =     0.00001806    0.00017494    0.00001950
     atom   23 type  3   force =     0.00021686   -0.00011696   -0.00051737
     atom   24 type  3   force =     0.00004863    0.00027566   -0.00018337
     atom   25 type  3   force =     0.00011511   -0.00036956    0.00031965
     atom   26 type  3   force =     0.00023071    0.00002218    0.00048039
     atom   27 type  3   force =    -0.00014070    0.00043313    0.00012963
     atom   28 type  4   force =    -0.00001317   -0.00005948   -0.00043639
     atom   29 type  4   force =     0.00003696    0.00018858    0.00006225
     atom   30 type  4   force =    -0.00022620   -0.00015805   -0.00008442
     atom   31 type  4   force =     0.00020491   -0.00032516   -0.00024460
     atom   32 type  4   force =    -0.00023655    0.00018774    0.00029511
     atom   33 type  4   force =     0.00003539   -0.00005318   -0.00004113
     atom   34 type  4   force =    -0.00005914    0.00026407   -0.00004039
     atom   35 type  4   force =     0.00011313    0.00004250    0.00008707

     Total force =     0.545169     Total SCF correction =     0.002469
     Energy error            =      7.7E-02 Ry
     Gradient error          =      1.6E-01 Ry/Bohr

     number of scf cycles    =  50
     number of bfgs steps    =  45

     energy             old  =   -4315.4559155277 Ry
     energy             new  =   -4315.5334132707 Ry

     CASE: energy            _new < energy            _old

     new trust radius        =       0.1759687396 bohr

     The maximum number of steps has been reached.

     End of BFGS Geometry Optimization

ATOMIC_POSITIONS (angstrom)
Hf            1.7372696370        4.8453846577        3.8082761158
Hf            2.6760679063        2.1930298395        4.7408784671
Hf            3.7688130740        6.9885681730        4.5384954774
Hf            2.6883547933        2.6480789057        0.0263920327
Hf            5.2910356905        3.5953357383       -1.0912276079
Ta            1.5031182841        0.2887641164        1.2849920769
Ta            5.3573153524        4.7882380287        1.0534629913
Ta            5.0892544309        2.1250279925        4.2403320326
Ta            5.5333764838        6.1291563694        3.0309785237
Ta            1.3938281110        3.9472632401        8.9816901112
Ta            7.1695513240        2.8554933082        7.8024775741
Nb            0.0519057797        2.8603245053        4.7344369818
Nb            3.4698452803        4.2840003113        2.4009230735
Nb            3.0078793595        4.2971928527        5.6522012117
Nb            4.7791413954       -0.2004275086        8.1820592090
Nb            2.9431890376        7.8921877864        6.7259267453
Nb            4.7300954898        4.3963339409        4.1852570489
Nb            0.8492997654        1.9604171521        2.7010799608
Nb            6.5564075303        3.6478743096        2.7483250138
Nb            1.3336173093        0.0989877094        3.8823679477
Nb           -0.4316972378        5.2331524919        4.6819760814
Nb            6.6223161033        0.1529659919        4.7961890291
Nb            6.0431101442        8.3121549715        2.6251641876
Nb            0.2502485907       -1.4834257162        2.0458417675
Nb            0.8769906385        4.2020538592       -0.8883760020
Nb            5.1994961979        1.1312978579       -1.1336242733
Nb            6.8593477198        8.0393458973        0.3976682498
Zr            3.3379710720        1.7152328366        2.5311199355
Zr            3.2804018449        6.7127528500        2.3823795350
Zr            2.7645685297        5.4898125617        0.3456124861
Zr            4.8254355464        2.4718678117        1.0162851159
Zr            0.7667309911        1.3837378325        6.1747813458
Zr            1.5216114812        6.4079063481        5.8561088560
Zr            4.9832801124       -1.3432611791        6.1637312248
Zr            7.0708192211        5.8331711463        7.2758144637

     Writing config-only to output data dir outdir/pwscf.save/
     NEW-OLD atomic charge density approx. for the potential

     negative rho (up, down):  1.549E+00 0.000E+00

     Writing all to output data dir outdir/pwscf.save/

     General routines

     Parallel routines

   This run was terminated on:  13:29:40   4Jun2023

   JOB DONE.