     Program PWSCF v.7.2 starts on 15May2023 at 14:28:31

     Reading input from Ta_3x3x1_MD_velocity_gt0_initialT_300.in
Warning: card &CELL ignored
Warning: card / ignored

     Current dimensions of program PWSCF are:
     Max number of different atomic species (ntypx) = 10
     Max number of k-points (npk) =  40000
     Max angular momentum in pseudopotentials (lmaxx) =  4

     File outdir/pwscf.update deleted, as requested

     File outdir/pwscf.md deleted, as requested

     R & G space division:  proc/nbgrp/npool/nimage =      12
     Subspace diagonalization in iterative solution of the eigenvalue problem:
     a serial algorithm will be used

     Using Slab Decomposition

     bravais-lattice index     =            0
     lattice parameter (alat)  =      18.7412  a.u.
     unit-cell volume          =    9386.5802 (a.u.)^3
     number of atoms/cell      =           10
     number of atomic types    =            2
     number of electrons       =       118.00
     number of Kohn-Sham states=           71
     kinetic-energy cutoff     =      30.0000  Ry
     charge density cutoff     =     120.0000  Ry
     scf convergence threshold =      1.0E-06
     mixing beta               =       0.7000
     number of iterations used =            8  plain     mixing
     energy convergence thresh.=      0.0E+00
     force convergence thresh. =      0.0E+00
     Exchange-correlation=  SLA  PW   PBX  PBC
                           (   1   4   3   4   0   0   0)
     nstep                     =            3

     celldm(1)=  18.741170  celldm(2)=   0.000000  celldm(3)=   0.000000
     celldm(4)=   0.000000  celldm(5)=   0.000000  celldm(6)=   0.000000

     crystal axes: (cart. coord. in units of alat)
               a(1) = (   1.000000   0.000000   0.000000 )
               a(2) = (   0.500000   0.707107   0.000000 )
               a(3) = (   0.000000   0.000000   2.016658 )

     reciprocal axes: (cart. coord. in units 2 pi/alat)
               b(1) = (  1.000000 -0.707107  0.000000 )
               b(2) = (  0.000000  1.414213  0.000000 )
               b(3) = (  0.000000  0.000000  0.495870 )

     PseudoPot. # 1 for Ta read from file:
     q-e/pseudo/ta_pbe_v1.uspp.F.UPF
     MD5 check sum: f8bbe9446314a3b8ea5d9f3e3836c939
     Pseudo is Ultrasoft + core correction, Zval = 13.0
     Generated by new atomic code, or converted to UPF format
     Using radial grid of  921 points,  7 beta functions with:
                l(1) =   0
                l(2) =   0
                l(3) =   1
                l(4) =   1
                l(5) =   2
                l(6) =   2
                l(7) =   3
     Q(r) pseudized with  6 coefficients,  rinner =    1.300   1.300   1.300
                                                       1.300   1.300   1.300
                                                       1.300

     PseudoPot. # 2 for H  read from file:
     q-e/pseudo/h_pbe_v1.4.uspp.F.UPF
     MD5 check sum: 761ae9a214b05c3daf00ab9f6b793d6f
     Pseudo is Ultrasoft, Zval =  1.0
     Generated by new atomic code, or converted to UPF format
     Using radial grid of  615 points,  2 beta functions with:
                l(1) =   0
                l(2) =   0
     Q(r) pseudized with  8 coefficients,  rinner =    0.700

     atomic species   valence    mass     pseudopotential
        Ta            13.00   180.94788     Ta( 1.00)
        H              1.00     2.01400     H ( 1.00)

     No symmetry found

   Cartesian axes

     site n.     atom                  positions (alat units)
         1           Ta  tau(   1) = (   0.0000000   0.0000000   1.0083288  )
         2           Ta  tau(   2) = (   0.3333333   0.0000000   1.0083288  )
         3           Ta  tau(   3) = (   0.6666667   0.0000000   1.0083288  )
         4           Ta  tau(   4) = (   0.1666667   0.2357023   1.0083288  )
         5           Ta  tau(   5) = (   0.5000000   0.2357023   1.0083288  )
         6           Ta  tau(   6) = (   0.8333333   0.2357023   1.0083288  )
         7           Ta  tau(   7) = (   0.3333333   0.4714045   1.0083288  )
         8           Ta  tau(   8) = (   0.6666667   0.4714045   1.0083288  )
         9           Ta  tau(   9) = (   1.0000000   0.4714045   1.0083288  )
        10           H   tau(  10) = (   0.5041644   0.4033315   1.5124932  )

     number of k points=     1  Gaussian smearing, width (Ry)=  0.0100
                       cart. coord. in units 2pi/alat
        k(    1) = (   0.0000000   0.0000000   0.0000000), wk =   2.0000000

     Check: negative core charge=   -0.000002

     Initial potential from superposition of free atoms

     starting charge     117.9900, renormalised to     118.0000

     negative rho (up, down):  8.970E-01 0.000E+00
     Starting wfcs are  118 randomized atomic wfcs

     Self-consistent Calculation

     iteration #  1     ecut=    30.00 Ry     beta= 0.70
     Davidson diagonalization with overlap
     ethr =  1.00E-02,  avg # of iterations =  2.0

     Threshold (ethr) on eigenvalues was too large:
     Diagonalizing with lowered threshold

     Davidson diagonalization with overlap
     ethr =  9.46E-04,  avg # of iterations =  1.0

     negative rho (up, down):  8.933E-01 0.000E+00

     total energy              =   -1275.29319203 Ry
     estimated scf accuracy    <       1.15640215 Ry

[...]

     End of self-consistent calculation

          k = 0.0000 0.0000 0.0000 ( 26023 PWs)   bands (ev):

   -70.5771 -70.5376 -70.5371 -70.5351 -70.5346 -70.5066 -70.5050 -70.4999
   -70.4992 -37.2082 -37.1385 -37.1382 -37.1351 -37.1330 -37.1007 -37.1001
   -37.0996 -37.0993 -37.0911 -37.0880 -37.0760 -37.0758 -37.0471 -37.0470
   -37.0397 -37.0391 -37.0335 -37.0332 -36.9005 -36.8996 -36.6047 -36.4654
   -36.4651 -36.4628 -36.4628 -36.3221  -7.9576  -5.5773  -5.5767  -5.5756
    -5.5754  -4.9253  -4.9238  -3.5157  -3.5154  -3.3144  -3.2803  -3.2792
    -3.2787  -3.2787  -3.1059  -3.1057  -2.9280  -2.5541  -2.5415  -2.5415
    -2.5406  -2.4169  -2.4138  -2.4088  -2.3540  -2.3530  -1.9062  -1.9049
    -1.6773  -1.5856  -1.5853  -1.3276  -1.3276  -1.3274  -1.3266

     the Fermi energy is    -2.4010 ev

!    total energy              =   -1275.76166733 Ry
     estimated scf accuracy    <       0.00000042 Ry
     smearing contrib. (-TS)   =      -0.03421086 Ry
     internal energy E=F+TS    =   -1275.72745646 Ry

     convergence has been achieved in  29 iterations

[...]

     Forces acting on atoms (cartesian axes, Ry/au):

     atom    1 type  1   force =    -0.00006086    0.00017379    0.00010849
     atom    2 type  1   force =    -0.00059239   -0.00010927   -0.00040030
     atom    3 type  1   force =     0.00066220   -0.00012022   -0.00040640
     atom    4 type  1   force =     0.00011196   -0.00018612   -0.00004121
     atom    5 type  1   force =     0.00000941   -0.00001951    0.00161254
     atom    6 type  1   force =    -0.00011346   -0.00023497   -0.00004014
     atom    7 type  1   force =    -0.00005402    0.00021467    0.00142078
     atom    8 type  1   force =     0.00000993    0.00017665    0.00151491
     atom    9 type  1   force =     0.00002987    0.00012076   -0.00004046
     atom   10 type  2   force =    -0.00000264   -0.00001578   -0.00372821
     The non-local contrib.  to forces
     atom    1 type  1   force =    -0.00008697   -0.00109497    0.00513067
     atom    2 type  1   force =    -0.00135991    0.00030710    0.00420975
     atom    3 type  1   force =     0.00145035    0.00028093    0.00418106
     atom    4 type  1   force =    -0.00001011   -0.00059250    0.00387665
     atom    5 type  1   force =     0.00007821    0.00122548    0.00634933
     atom    6 type  1   force =    -0.00005912   -0.00072585    0.00391535
     atom    7 type  1   force =     0.00232458    0.00057188    0.00591205
     atom    8 type  1   force =    -0.00243880    0.00047936    0.00597186
     atom    9 type  1   force =     0.00011190   -0.00045569    0.00321444
     atom   10 type  2   force =    -0.00000087   -0.00001337   -0.00101328
     The ionic contribution  to forces
     atom    1 type  1   force =    -0.00032546    0.03601887   -0.32785342
     atom    2 type  1   force =     0.00693534   -0.00797019   -0.30956715
     atom    3 type  1   force =    -0.00661488   -0.00928554   -0.30919148
     atom    4 type  1   force =    -0.02537559   -0.00294585   -0.30858491
     atom    5 type  1   force =    -0.00097561   -0.03795733   -0.37135297
     atom    6 type  1   force =     0.02632860   -0.00390116   -0.31013577
     atom    7 type  1   force =    -0.04017484    0.01343775   -0.36447290
     atom    8 type  1   force =     0.03924175    0.01394934   -0.36716157
     atom    9 type  1   force =     0.00096890   -0.00142386   -0.29151684
     atom   10 type  2   force =    -0.00000822    0.00007798    2.95983701
     The local contribution  to forces
     atom    1 type  1   force =     0.00015811   -0.03567027    0.32310212
     atom    2 type  1   force =    -0.00607033    0.00719592    0.30552141
     atom    3 type  1   force =     0.00591244    0.00843967    0.30514916
     atom    4 type  1   force =     0.02526294    0.00356709    0.30514002
     atom    5 type  1   force =     0.00101236    0.03733536    0.36655536
     atom    6 type  1   force =    -0.02625322    0.00426206    0.30662736
     atom    7 type  1   force =     0.03840622   -0.01327585    0.35986608
     atom    8 type  1   force =    -0.03764955   -0.01393169    0.36258854
     atom    9 type  1   force =    -0.00079431    0.00220140    0.28881045
     atom   10 type  2   force =     0.00000709   -0.00007610   -2.96252540
     The core correction contribution to forces
     atom    1 type  1   force =    -0.00001103    0.00027610    0.00031397
     atom    2 type  1   force =    -0.00020158    0.00006502    0.00017018
     atom    3 type  1   force =     0.00021463    0.00006235    0.00017019
     atom    4 type  1   force =     0.00009772   -0.00025329    0.00023508
     atom    5 type  1   force =    -0.00001734   -0.00045160    0.00056602
     atom    6 type  1   force =    -0.00008206   -0.00025275    0.00024625
     atom    7 type  1   force =    -0.00029497    0.00020007    0.00061701
     atom    8 type  1   force =     0.00030125    0.00020421    0.00062526
     atom    9 type  1   force =    -0.00000785    0.00014816    0.00023636
     atom   10 type  2   force =     0.00000000    0.00000000    0.00000000
     The Hubbard contrib.    to forces
     atom    1 type  1   force =     0.00000000    0.00000000    0.00000000
     atom    2 type  1   force =     0.00000000    0.00000000    0.00000000
     atom    3 type  1   force =     0.00000000    0.00000000    0.00000000
     atom    4 type  1   force =     0.00000000    0.00000000    0.00000000
     atom    5 type  1   force =     0.00000000    0.00000000    0.00000000
     atom    6 type  1   force =     0.00000000    0.00000000    0.00000000
     atom    7 type  1   force =     0.00000000    0.00000000    0.00000000
     atom    8 type  1   force =     0.00000000    0.00000000    0.00000000
     atom    9 type  1   force =     0.00000000    0.00000000    0.00000000
     atom   10 type  2   force =     0.00000000    0.00000000    0.00000000
     The SCF correction term to forces
     atom    1 type  1   force =     0.00000000    0.00000000   -0.00000000
     atom    2 type  1   force =     0.00000000    0.00000000   -0.00000000
     atom    3 type  1   force =    -0.00000000    0.00000000   -0.00000000
     atom    4 type  1   force =     0.00000000    0.00000000   -0.00000000
     atom    5 type  1   force =    -0.00000000   -0.00000000   -0.00000000
     atom    6 type  1   force =    -0.00000000    0.00000000   -0.00000000
     atom    7 type  1   force =    -0.00000000   -0.00000000   -0.00000000
     atom    8 type  1   force =     0.00000000   -0.00000000   -0.00000000
     atom    9 type  1   force =    -0.00000000   -0.00000000   -0.00000000
     atom   10 type  2   force =     0.00000082   -0.00000265    0.00002603

     Total force =     0.003728     Total SCF correction =     0.000026

     Molecular Dynamics Calculation

     Starting temperature  =   300.00 K

     temperature is set once at start

     mass Ta               =   180.95
     mass H                =     2.01
     Time step             =   100.00 a.u.,  4.8378 femto-seconds

     Entering Dynamics:    iteration =     1
                           time      =   0.0048 pico-seconds

ATOMIC_POSITIONS (angstrom)
Ta            0.0000000000        0.0000000000       10.0000000000    0   0   0
Ta            3.3057996767        0.0000000000       10.0000000000    0   0   0
Ta            6.6116003452        0.0000000000       10.0000000000    0   0   0
Ta            1.6529003342        2.3375539952       10.0000000000    0   0   0
Ta            4.9587000109        2.3375539952       10.0000000000    0   0   0
Ta            8.2644996877        2.3375539952       10.0000000000    0   0   0
Ta            3.3057996767        4.6751069986       10.0000000000    0   0   0
Ta            6.6116003452        4.6751069986       10.0000000000    0   0   0
Ta            9.9174000219        4.6751069986       10.0000000000    0   0   0
H             4.9999961998        3.9999772496       13.1615563378

     kinetic energy (Ekin) =           1.10132461 Ry
     temperature           =      115923.60185948 K
     Ekin + Etot (const)   =       -1274.66034272 Ry

     File outdir/pwscf.msd.dat deleted, as requested

     Writing config-only to output data dir outdir/pwscf.save/
     NEW-OLD atomic charge density approx. for the potential

[...]

     Writing config-only to output data dir outdir/pwscf.save/
     NEW-OLD atomic charge density approx. for the potential

     Check: negative core charge=   -0.000002

[...]

     Self-consistent Calculation

[...]

     total energy              =   -1276.07990256 Ry
     estimated scf accuracy    <       0.00000209 Ry

     iteration # 20     ecut=    30.00 Ry     beta= 0.70
     Davidson diagonalization with overlap
     ethr =  8.74E-10,  avg # of iterations =  5.0

[...]

     End of self-consistent calculation

          k = 0.0000 0.0000 0.0000 ( 26023 PWs)   bands (ev):

   -70.1904 -70.1649 -70.1489 -70.1312 -70.1192 -70.0970 -70.0736 -70.0701
   -70.0650 -36.8177 -36.7624 -36.7584 -36.7413 -36.7219 -36.7082 -36.7011
   -36.6999 -36.6898 -36.6849 -36.6723 -36.6538 -36.6504 -36.6474 -36.6402
   -36.6385 -36.6254 -36.6203 -36.6084 -36.5182 -36.4739 -36.1985 -36.0870
   -36.0723 -36.0555 -36.0395 -35.9200  -8.2063  -6.6536  -5.2246  -5.2086
    -5.1851  -4.8768  -4.5225  -4.1534  -3.1356  -3.1119  -2.9518  -2.9105
    -2.9023  -2.8777  -2.8102  -2.7202  -2.6020  -2.3771  -2.1865  -2.1783
    -2.1749  -2.0958  -2.0368  -2.0143  -1.9907  -1.6638  -1.5604  -1.4482
    -1.2479  -1.2026  -0.9972  -0.9872  -0.9514  -0.9283  -0.3395

     the Fermi energy is    -2.0235 ev

!    total energy              =   -1276.07990235 Ry
     estimated scf accuracy    <       0.00000048 Ry
     smearing contrib. (-TS)   =      -0.02532009 Ry
     internal energy E=F+TS    =   -1276.05458227 Ry

     convergence has been achieved in  20 iterations

     negative rho (up, down):  8.978E-01 0.000E+00

     Forces acting on atoms (cartesian axes, Ry/au):

     atom    1 type  1   force =    -0.00091510    0.02211539   -0.01299217
     atom    2 type  1   force =     0.00928308   -0.00820133    0.00335261
     atom    3 type  1   force =    -0.00809253   -0.00887190    0.00248167
     atom    4 type  1   force =    -0.00820837   -0.00652120    0.00349117
     atom    5 type  1   force =     0.00006996    0.00726939   -0.00300680
     atom    6 type  1   force =     0.00854577   -0.00662459    0.00371887
     atom    7 type  1   force =     0.01329815   -0.00467828    0.01157914
     atom    8 type  1   force =    -0.01222240   -0.00608916    0.00996573
     atom    9 type  1   force =     0.00032806    0.01350768   -0.00401780
     atom   10 type  2   force =    -0.00208661   -0.00190599   -0.01457241
     The non-local contrib.  to forces
     atom    1 type  1   force =    -0.00177376   -0.02088811   -0.01133764
     atom    2 type  1   force =    -0.01443864    0.00100143    0.02013077
     atom    3 type  1   force =     0.01563634    0.00102635    0.01879394
     atom    4 type  1   force =     0.00892739    0.00544634    0.00480756
     atom    5 type  1   force =    -0.00062929    0.00913696   -0.03864628
     atom    6 type  1   force =    -0.00904901    0.00402229    0.00491811
     atom    7 type  1   force =     0.05831894    0.00274300    0.00830789
     atom    8 type  1   force =    -0.05028360    0.00430751   -0.00240042
     atom    9 type  1   force =     0.00081715   -0.00537494    0.02629843
     atom   10 type  2   force =     0.00197630   -0.00948696   -0.04273381
     The ionic contribution  to forces
     atom    1 type  1   force =    -0.00562842    0.48134705   -0.32929598
     atom    2 type  1   force =     0.04862665   -0.05743285   -0.21836462
     atom    3 type  1   force =    -0.04418790   -0.07030119   -0.21742099
     atom    4 type  1   force =    -0.24115430   -0.07095614   -0.23058786
     atom    5 type  1   force =    -0.03355382   -1.33534525   -1.07708632
     atom    6 type  1   force =     0.25657019   -0.08292840   -0.23730015
     atom    7 type  1   force =    -1.11822170    0.43766273   -0.89627334
     atom    8 type  1   force =     1.17078935    0.48334342   -0.97456208
     atom    9 type  1   force =     0.00776771    0.00044360   -0.17702013
     atom   10 type  2   force =    -0.04100775    0.21416705    4.35791148
     The local contribution  to forces
     atom    1 type  1   force =     0.00626261   -0.44214267    0.32828765
     atom    2 type  1   force =    -0.02437451    0.04734549    0.19841399
     atom    3 type  1   force =     0.02010181    0.05986711    0.19798077
     atom    4 type  1   force =     0.22228501    0.06001849    0.22718234
     atom    5 type  1   force =     0.03486931    1.33654956    1.11593879
     atom    6 type  1   force =    -0.23760549    0.07336179    0.23393334
     atom    7 type  1   force =     1.07611623   -0.44386427    0.89793805
     atom    8 type  1   force =    -1.13617994   -0.49308312    0.98640175
     atom    9 type  1   force =    -0.00842812    0.02067679    0.14513599
     atom   10 type  2   force =     0.03695346   -0.20661228   -4.32995541
     The core correction contribution to forces
     atom    1 type  1   force =    -0.00008953    0.00327026   -0.00202260
     atom    2 type  1   force =     0.00017834    0.00024099    0.00184768
     atom    3 type  1   force =    -0.00003343    0.00040568    0.00180087
     atom    4 type  1   force =     0.00175885   -0.00041263    0.00079556
     atom    5 type  1   force =    -0.00028172   -0.00293233   -0.00447279
     atom    6 type  1   force =    -0.00172407   -0.00045425    0.00084507
     atom    7 type  1   force =    -0.00278294   -0.00119412    0.00034105
     atom    8 type  1   force =     0.00367941   -0.00104631   -0.00075207
     atom    9 type  1   force =    -0.00018042   -0.00194765    0.00032711
     atom   10 type  2   force =     0.00000000    0.00000000    0.00000000
     The Hubbard contrib.    to forces
     atom    1 type  1   force =     0.00000000    0.00000000    0.00000000
     atom    2 type  1   force =     0.00000000    0.00000000    0.00000000
     atom    3 type  1   force =     0.00000000    0.00000000    0.00000000
     atom    4 type  1   force =     0.00000000    0.00000000    0.00000000
     atom    5 type  1   force =     0.00000000    0.00000000    0.00000000
     atom    6 type  1   force =     0.00000000    0.00000000    0.00000000
     atom    7 type  1   force =     0.00000000    0.00000000    0.00000000
     atom    8 type  1   force =     0.00000000    0.00000000    0.00000000
     atom    9 type  1   force =     0.00000000    0.00000000    0.00000000
     atom   10 type  2   force =     0.00000000    0.00000000    0.00000000
     The SCF correction term to forces
     atom    1 type  1   force =     0.00000000    0.00000000    0.00000000
     atom    2 type  1   force =    -0.00000000    0.00000000    0.00000000
     atom    3 type  1   force =     0.00000000    0.00000000    0.00000000
     atom    4 type  1   force =    -0.00000000   -0.00000000    0.00000000
     atom    5 type  1   force =    -0.00000000   -0.00000000    0.00000000
     atom    6 type  1   force =     0.00000000   -0.00000000    0.00000000
     atom    7 type  1   force =    -0.00000000   -0.00000000    0.00000000
     atom    8 type  1   force =    -0.00000000    0.00000000    0.00000000
     atom    9 type  1   force =     0.00000000   -0.00000000    0.00000000
     atom   10 type  2   force =    -0.00000755    0.00002625    0.00006318

     Total force =     0.014844     Total SCF correction =     0.000069

     Entering Dynamics:    iteration =     3
                           time      =   0.0145 pico-seconds

ATOMIC_POSITIONS (angstrom)
Ta            0.0000000000        0.0000000000       10.0000000000    0   0   0
Ta            3.3057996767        0.0000000000       10.0000000000    0   0   0
Ta            6.6116003452        0.0000000000       10.0000000000    0   0   0
Ta            1.6529003342        2.3375539952       10.0000000000    0   0   0
Ta            4.9587000109        2.3375539952       10.0000000000    0   0   0
Ta            8.2644996877        2.3375539952       10.0000000000    0   0   0
Ta            3.3057996767        4.6751069986       10.0000000000    0   0   0
Ta            6.6116003452        4.6751069986       10.0000000000    0   0   0
Ta            9.9174000219        4.6751069986       10.0000000000    0   0   0
H             4.9946538309        3.9878023821        9.1565912378

     kinetic energy (Ekin) =           1.31431534 Ry
     temperature           =      138342.65325295 K
     Ekin + Etot (const)   =       -1274.76558701 Ry

     The maximum number of steps has been reached.

     End of molecular dynamics calculation

     diffusion coefficients :
     atom     1   D =       0.00000000 cm^2/s
     atom     2   D =       0.00000000 cm^2/s
     atom     3   D =       0.00000000 cm^2/s
     atom     4   D =       0.00000000 cm^2/s
     atom     5   D =       0.00000000 cm^2/s
     atom     6   D =       0.00000000 cm^2/s
     atom     7   D =       0.00000000 cm^2/s
     atom     8   D =       0.00000000 cm^2/s
     atom     9   D =       0.00000000 cm^2/s
     atom    10   D =       0.03921184 cm^2/s

     < D > =       0.03921184 cm^2/s

     Writing all to output data dir outdir/pwscf.save/

     General routines

     Parallel routines

   This run was terminated on:  14:31:12  15May2023

   JOB DONE.