     Program PWSCF v.7.2 starts on 14Jun2023 at 13:50:52

     Reading input from md_data/md_Be30W8H_20steps_2000eV_incident0_polar0.in
Warning: card &CELL ignored
Warning: card / ignored

     Current dimensions of program PWSCF are:
     Max number of different atomic species (ntypx) = 10
     Max number of k-points (npk) =  40000
     Max angular momentum in pseudopotentials (lmaxx) =  4

     File outdir/pwscf.update deleted, as requested

     File outdir/pwscf.md deleted, as requested

     gamma-point specific algorithms are used

     R & G space division:  proc/nbgrp/npool/nimage =      42
     Subspace diagonalization in iterative solution of the eigenvalue problem:
     a serial algorithm will be used

     Using Slab Decomposition

     bravais-lattice index     =            0
     lattice parameter (alat)  =      32.3337  a.u.
     unit-cell volume          =   15132.7767 (a.u.)^3
     number of atoms/cell      =           39
     number of atomic types    =            3
     number of electrons       =       233.00
     number of Kohn-Sham states=          140
     kinetic-energy cutoff     =     120.0000  Ry
     charge density cutoff     =     480.0000  Ry
     scf convergence threshold =      1.0E-03
     mixing beta               =       0.7000
     number of iterations used =            8  TF        mixing
     energy convergence thresh.=      0.0E+00
     force convergence thresh. =      0.0E+00
     Exchange-correlation=  SLA  PW   PBX  PBC
                           (   1   4   3   4   0   0   0)
     nstep                     =           20

     celldm(1)=  32.333659  celldm(2)=   0.000000  celldm(3)=   0.000000
     celldm(4)=   0.000000  celldm(5)=   0.000000  celldm(6)=   0.000000

     crystal axes: (cart. coord. in units of alat)
               a(1) = (   1.000000   0.000000   0.000000 )
               a(2) = (   0.000000   0.575603   0.000000 )
               a(3) = (   0.000000   0.000000   0.777734 )

     reciprocal axes: (cart. coord. in units 2 pi/alat)
               b(1) = (  1.000000  0.000000  0.000000 )
               b(2) = (  0.000000  1.737309  0.000000 )
               b(3) = (  0.000000  0.000000  1.285786 )

     PseudoPot. # 1 for Be read from file:
     q-e/pseudo/be_pbe_v1.4.uspp.F.UPF
     MD5 check sum: 5ecff1440924c7c98ad504bef30f5264
     Pseudo is Ultrasoft, Zval =  4.0
     Generated by new atomic code, or converted to UPF format
     Using radial grid of  769 points,  6 beta functions with:
                l(1) =   0
                l(2) =   0
                l(3) =   0
                l(4) =   1
                l(5) =   1
                l(6) =   2
     Q(r) pseudized with 10 coefficients,  rinner =    1.000   1.000   1.000
                                                       1.000   1.000

     PseudoPot. # 2 for W  read from file:
     q-e/pseudo/w_pbe_v1.2.uspp.F.UPF
     MD5 check sum: 9c083fa34c2a2ea0f02f1f893e16e1c8
     Pseudo is Ultrasoft + core correction, Zval = 14.0
     Generated by new atomic code, or converted to UPF format
     Using radial grid of  923 points,  8 beta functions with:
                l(1) =   0
                l(2) =   0
                l(3) =   0
                l(4) =   1
                l(5) =   1
                l(6) =   2
                l(7) =   2
                l(8) =   3
     Q(r) pseudized with  6 coefficients,  rinner =    1.350   1.350   1.350
                                                       1.350   1.350   1.350
                                                       1.350

     PseudoPot. # 3 for H  read from file:
     q-e/pseudo/h_pbe_v1.4.uspp.F.UPF
     MD5 check sum: 761ae9a214b05c3daf00ab9f6b793d6f
     Pseudo is Ultrasoft, Zval =  1.0
     Generated by new atomic code, or converted to UPF format
     Using radial grid of  615 points,  2 beta functions with:
                l(1) =   0
                l(2) =   0
     Q(r) pseudized with  8 coefficients,  rinner =    0.700

     atomic species   valence    mass     pseudopotential
        Be             4.00     9.01218     Be( 1.00)
        W             14.00   183.84000     W ( 1.00)
        H              1.00     2.01400     H ( 1.00)

     Starting magnetic structure
     atomic species   magnetization
        Be           0.000
        W            0.000
        H            0.000

     No symmetry found

   Cartesian axes

     site n.     atom                  positions (alat units)
         1           Be  tau(   1) = (   0.3052002   0.1753336   0.1753336  )
         2           Be  tau(   2) = (   0.3052002   0.1753336   0.6024006  )
         3           Be  tau(   3) = (   0.1753336   0.4002691   0.1753336  )
         4           Be  tau(   4) = (   0.1753336   0.4002691   0.6024006  )
         5           Be  tau(   5) = (   0.5649333   0.1753336   0.1753336  )
         6           Be  tau(   6) = (   0.5649333   0.1753336   0.6024006  )
         7           Be  tau(   7) = (   0.4350667   0.4002691   0.1753336  )
         8           Be  tau(   8) = (   0.4350667   0.4002691   0.6024006  )
         9           Be  tau(   9) = (   0.8246664   0.1753336   0.1753336  )
        10           Be  tau(  10) = (   0.8246664   0.1753336   0.6024006  )
        11           Be  tau(  11) = (   0.6947998   0.4002691   0.1753336  )
        12           Be  tau(  12) = (   0.6947998   0.4002691   0.6024006  )
        13           Be  tau(  13) = (   0.3052002   0.1753336   0.3888671  )
        14           Be  tau(  14) = (   0.1753336   0.4002691   0.3888671  )
        15           Be  tau(  15) = (   0.5649333   0.1753336   0.3888671  )
        16           Be  tau(  16) = (   0.4350667   0.4002691   0.3888671  )
        17           Be  tau(  17) = (   0.8246664   0.1753336   0.3888671  )
        18           Be  tau(  18) = (   0.6947998   0.4002691   0.3888671  )
        19           Be  tau(  19) = (   0.4350667   0.3237532   0.2821004  )
        20           Be  tau(  20) = (   0.6947998   0.3237532   0.2821004  )
        21           Be  tau(  21) = (   0.2415983   0.3620112   0.4956338  )
        22           Be  tau(  22) = (   0.5013314   0.3620112   0.4956338  )
        23           Be  tau(  23) = (   0.3688021   0.3620112   0.4956338  )
        24           Be  tau(  24) = (   0.6285351   0.3620112   0.4956338  )
        25           Be  tau(  25) = (   0.3714649   0.2135916   0.2821004  )
        26           Be  tau(  26) = (   0.6311979   0.2135916   0.2821004  )
        27           Be  tau(  27) = (   0.4986686   0.2135916   0.2821004  )
        28           Be  tau(  28) = (   0.7584017   0.2135916   0.2821004  )
        29           Be  tau(  29) = (   0.3052002   0.2518495   0.4956338  )
        30           Be  tau(  30) = (   0.5649333   0.2518495   0.4956338  )
        31           W   tau(  31) = (   0.3052002   0.3252906   0.2023523  )
        32           W   tau(  32) = (   0.5649333   0.3252906   0.2023523  )
        33           W   tau(  33) = (   0.4350667   0.2503121   0.4158858  )
        34           W   tau(  34) = (   0.6947998   0.2503121   0.4158858  )
        35           W   tau(  35) = (   0.4350667   0.2503121   0.5753819  )
        36           W   tau(  36) = (   0.6947998   0.2503121   0.5753819  )
        37           W   tau(  37) = (   0.3052002   0.3252906   0.3618484  )
        38           W   tau(  38) = (   0.5649333   0.3252906   0.3618484  )
        39           H   tau(  39) = (   0.4350667   0.5727566   0.3574413  )

     number of k points=     1  Gaussian smearing, width (Ry)=  0.0220
                       cart. coord. in units 2pi/alat
        k(    1) = (   0.0000000   0.0000000   0.0000000), wk =   1.0000000

     Initial potential from superposition of free atoms

     starting charge     232.1926, renormalised to     233.0000

     negative rho (up, down):  2.536E-01 2.536E-01
     Starting wfcs are  255 randomized atomic wfcs

     Self-consistent Calculation

     iteration #  1     ecut=   120.00 Ry     beta= 0.70
     Davidson diagonalization with overlap
     ethr =  1.00E-02,  avg # of iterations =  2.0

     negative rho (up, down):  2.676E-01 2.677E-01

     total energy              =   -2115.79154153 Ry
     estimated scf accuracy    <      17.49535733 Ry

     total magnetization       =     0.00 Bohr mag/cell
     absolute magnetization    =     0.07 Bohr mag/cell

[...]

     Magnetic moment per site  (integrated on atomic sphere of radius R)
     atom   1 (R=0.052)  charge=  2.6318   -0.0248
     atom   2 (R=0.052)  charge=  2.6319   -0.0058
     atom   3 (R=0.052)  charge=  2.5955   -0.0102
     atom   4 (R=0.052)  charge=  2.5929   -0.0914
     atom   5 (R=0.052)  charge=  2.6644   -0.0236
     atom   6 (R=0.052)  charge=  2.6921    0.0011
     atom   7 (R=0.052)  charge=  2.6918    0.0006
     atom   8 (R=0.052)  charge=  2.6648   -0.0174
     atom   9 (R=0.052)  charge=  2.5939    0.0905
     atom  10 (R=0.052)  charge=  2.5959    0.0192
     atom  11 (R=0.052)  charge=  2.6320   -0.0121
     atom  12 (R=0.052)  charge=  2.6316   -0.0014
     atom  13 (R=0.052)  charge=  2.6963   -0.0046
     atom  14 (R=0.052)  charge=  2.6239   -0.0162
     atom  15 (R=0.052)  charge=  2.7816   -0.0014
     atom  16 (R=0.052)  charge=  2.7810   -0.0171
     atom  17 (R=0.052)  charge=  2.6246    0.0296
     atom  18 (R=0.052)  charge=  2.6970   -0.0011
     atom  19 (R=0.052)  charge=  2.9442    0.0005
     atom  20 (R=0.052)  charge=  2.8823   -0.0031
     atom  21 (R=0.052)  charge=  2.8125   -0.0170
     atom  22 (R=0.052)  charge=  2.9008    0.0013
     atom  23 (R=0.052)  charge=  2.9001    0.0019
     atom  24 (R=0.052)  charge=  2.8769    0.0000
     atom  25 (R=0.052)  charge=  2.8763    0.0001
     atom  26 (R=0.052)  charge=  2.9004   -0.0031
     atom  27 (R=0.052)  charge=  2.9006    0.0019
     atom  28 (R=0.052)  charge=  2.8128    0.0188
     atom  29 (R=0.052)  charge=  2.8823    0.0012
     atom  30 (R=0.052)  charge=  2.9444   -0.0006
     atom  31 (R=0.063)  charge= 10.9145   -0.0522
     atom  32 (R=0.063)  charge= 10.9239   -0.0529
     atom  33 (R=0.063)  charge= 10.9884   -0.0208
     atom  34 (R=0.063)  charge= 10.9339    0.0269
     atom  35 (R=0.063)  charge= 10.9283   -0.0020
     atom  36 (R=0.063)  charge= 10.9084    0.0201
     atom  37 (R=0.063)  charge= 10.9314   -0.0027
     atom  38 (R=0.063)  charge= 10.9895    0.0023
     atom  39 (R=0.072)  charge=  0.9054    0.7859

     End of self-consistent calculation

 ------ SPIN UP ------------

          k = 0.0000 0.0000 0.0000 (168028 PWs)   bands (ev):

  -103.4370-103.3487-103.0004-102.9998-102.9710-102.9607-102.6954-102.6895
  -102.6237-102.6210-102.5543-102.5508-102.3249-102.3191-101.6672-101.6551
  -101.4243-101.3925-100.9300-100.9115-100.4959-100.4870-100.4698-100.4633
  -100.4088-100.4027-100.3937-100.3914-100.0495-100.0453 -74.9227 -74.9008
   -74.8815 -74.8774 -74.8605 -74.8520 -74.7729 -74.7609 -39.3708 -39.3471
   -39.3175 -39.2609 -39.2314 -39.1792 -39.1624 -39.0931 -39.0653 -39.0521
   -39.0309 -39.0085 -38.9909 -38.9655 -38.9574 -38.9297 -38.8955 -38.8850
   -38.8766 -38.8304 -38.7956 -38.7810 -38.7349 -38.7234  -8.7799  -7.7149
[...]
     atom   17 type  1   force =   -12.04250267    4.92113629   -0.08949705
     atom   18 type  1   force =   -11.96072696  -11.90486956    0.10467007
     atom   19 type  1   force =     3.03674024   -4.73667939    7.92290461
     atom   20 type  1   force =   -13.79074065   -4.96578812    7.06921860
     atom   21 type  1   force =    11.67661037   -4.10809061   -6.30355778
     atom   22 type  1   force =    -1.48062840  -11.20607355   -8.21104568
     atom   23 type  1   force =     7.73019371   -9.93850955   -7.87838136
     atom   24 type  1   force =    -6.13739035  -10.90274101   -7.22388225
     atom   25 type  1   force =     6.15722782   10.76041046    7.26815907
     atom   26 type  1   force =    -7.76536731    9.92074147    7.84162972
     atom   27 type  1   force =     1.35052597   11.07874436    8.22148851
     atom   28 type  1   force =   -11.67576336    4.10417410    6.29140590
     atom   29 type  1   force =    13.79786273    4.92404948   -7.10253338
     atom   30 type  1   force =    -3.10322819    4.65714061   -7.96458428
     atom   31 type  2   force =    28.95330710   -5.97945832   31.88664395
     atom   32 type  2   force =   -11.63160477  -11.37437030   40.61486545
     atom   33 type  2   force =    13.36349675   23.09881445   -5.70233243
     atom   34 type  2   force =   -42.86082934   12.03659879   -2.62154402
     atom   35 type  2   force =    11.48730926   11.25460615  -40.69966596
     atom   36 type  2   force =   -28.96746215    5.92730608  -31.85758623
     atom   37 type  2   force =    42.81505719  -12.14950902    2.58789366
     atom   38 type  2   force =   -13.53889225  -23.54686145    5.57667230
     atom   39 type  3   force =     0.61583532    1.45998480    0.37495501
     The core correction contribution to forces
     atom    1 type  1   force =     0.00000000    0.00000000    0.00000000
     atom    2 type  1   force =     0.00000000    0.00000000    0.00000000
     atom    3 type  1   force =     0.00000000    0.00000000    0.00000000
     atom    4 type  1   force =     0.00000000    0.00000000    0.00000000
     atom    5 type  1   force =     0.00000000    0.00000000    0.00000000
     atom    6 type  1   force =     0.00000000    0.00000000    0.00000000
     atom    7 type  1   force =     0.00000000    0.00000000    0.00000000
     atom    8 type  1   force =     0.00000000    0.00000000    0.00000000
     atom    9 type  1   force =     0.00000000    0.00000000    0.00000000
     atom   10 type  1   force =     0.00000000    0.00000000    0.00000000
     atom   11 type  1   force =     0.00000000    0.00000000    0.00000000
     atom   12 type  1   force =     0.00000000    0.00000000    0.00000000
     atom   13 type  1   force =     0.00000000    0.00000000    0.00000000
     atom   14 type  1   force =     0.00000000    0.00000000    0.00000000
     atom   15 type  1   force =     0.00000000    0.00000000    0.00000000
     atom   16 type  1   force =     0.00000000    0.00000000    0.00000000
     atom   17 type  1   force =     0.00000000    0.00000000    0.00000000
     atom   18 type  1   force =     0.00000000    0.00000000    0.00000000
     atom   19 type  1   force =     0.00000000    0.00000000    0.00000000
     atom   20 type  1   force =     0.00000000    0.00000000    0.00000000
     atom   21 type  1   force =     0.00000000    0.00000000    0.00000000
     atom   22 type  1   force =     0.00000000    0.00000000    0.00000000
     atom   23 type  1   force =     0.00000000    0.00000000    0.00000000
     atom   24 type  1   force =     0.00000000    0.00000000    0.00000000
     atom   25 type  1   force =     0.00000000    0.00000000    0.00000000
     atom   26 type  1   force =     0.00000000    0.00000000    0.00000000
     atom   27 type  1   force =     0.00000000    0.00000000    0.00000000
     atom   28 type  1   force =     0.00000000    0.00000000    0.00000000
     atom   29 type  1   force =     0.00000000    0.00000000    0.00000000
     atom   30 type  1   force =     0.00000000    0.00000000    0.00000000
     atom   31 type  2   force =    -0.00732598    0.00166554   -0.03552220
     atom   32 type  2   force =     0.00368067    0.00201986   -0.03494395
     atom   33 type  2   force =    -0.00670134   -0.01476313   -0.00018513
     atom   34 type  2   force =     0.01254167   -0.00181109   -0.00417239
     atom   35 type  2   force =    -0.00356882   -0.00275406    0.03544712
     atom   36 type  2   force =     0.00742432   -0.00165205    0.03606898
     atom   37 type  2   force =    -0.01268029    0.00177010    0.00393049
     atom   38 type  2   force =     0.00638249    0.01295543   -0.00108848
     atom   39 type  3   force =     0.00000000    0.00000000    0.00000000
     The Hubbard contrib.    to forces
     atom    1 type  1   force =     0.00000000    0.00000000    0.00000000
     atom    2 type  1   force =     0.00000000    0.00000000    0.00000000
     atom    3 type  1   force =     0.00000000    0.00000000    0.00000000
     atom    4 type  1   force =     0.00000000    0.00000000    0.00000000
     atom    5 type  1   force =     0.00000000    0.00000000    0.00000000
     atom    6 type  1   force =     0.00000000    0.00000000    0.00000000
     atom    7 type  1   force =     0.00000000    0.00000000    0.00000000
     atom    8 type  1   force =     0.00000000    0.00000000    0.00000000
     atom    9 type  1   force =     0.00000000    0.00000000    0.00000000
     atom   10 type  1   force =     0.00000000    0.00000000    0.00000000
     atom   11 type  1   force =     0.00000000    0.00000000    0.00000000
     atom   12 type  1   force =     0.00000000    0.00000000    0.00000000
     atom   13 type  1   force =     0.00000000    0.00000000    0.00000000
     atom   14 type  1   force =     0.00000000    0.00000000    0.00000000
     atom   15 type  1   force =     0.00000000    0.00000000    0.00000000
     atom   16 type  1   force =     0.00000000    0.00000000    0.00000000
     atom   17 type  1   force =     0.00000000    0.00000000    0.00000000
     atom   18 type  1   force =     0.00000000    0.00000000    0.00000000
     atom   19 type  1   force =     0.00000000    0.00000000    0.00000000
     atom   20 type  1   force =     0.00000000    0.00000000    0.00000000
     atom   21 type  1   force =     0.00000000    0.00000000    0.00000000
     atom   22 type  1   force =     0.00000000    0.00000000    0.00000000
     atom   23 type  1   force =     0.00000000    0.00000000    0.00000000
     atom   24 type  1   force =     0.00000000    0.00000000    0.00000000
     atom   25 type  1   force =     0.00000000    0.00000000    0.00000000
     atom   26 type  1   force =     0.00000000    0.00000000    0.00000000
     atom   27 type  1   force =     0.00000000    0.00000000    0.00000000
     atom   28 type  1   force =     0.00000000    0.00000000    0.00000000
     atom   29 type  1   force =     0.00000000    0.00000000    0.00000000
     atom   30 type  1   force =     0.00000000    0.00000000    0.00000000
     atom   31 type  2   force =     0.00000000    0.00000000    0.00000000
     atom   32 type  2   force =     0.00000000    0.00000000    0.00000000
     atom   33 type  2   force =     0.00000000    0.00000000    0.00000000
     atom   34 type  2   force =     0.00000000    0.00000000    0.00000000
     atom   35 type  2   force =     0.00000000    0.00000000    0.00000000
     atom   36 type  2   force =     0.00000000    0.00000000    0.00000000
     atom   37 type  2   force =     0.00000000    0.00000000    0.00000000
     atom   38 type  2   force =     0.00000000    0.00000000    0.00000000
     atom   39 type  3   force =     0.00000000    0.00000000    0.00000000
     The SCF correction term to forces
     atom    1 type  1   force =     0.00184439   -0.00283218    0.00359224
     atom    2 type  1   force =    -0.00239190   -0.00162116   -0.00282874
     atom    3 type  1   force =    -0.00360668    0.00099104    0.00093302
     atom    4 type  1   force =    -0.00272243    0.00051367   -0.00057533
     atom    5 type  1   force =     0.00127432   -0.00458764    0.00323275
     atom    6 type  1   force =     0.00682381   -0.00199903   -0.00220267
     atom    7 type  1   force =     0.00151625    0.00310840    0.00329564
     atom    8 type  1   force =     0.00258175    0.00319499   -0.00333615
     atom    9 type  1   force =    -0.00062790   -0.00063335    0.00008942
     atom   10 type  1   force =    -0.00233649    0.00024751   -0.00009188
     atom   11 type  1   force =     0.00411558    0.00203058    0.00086183
     atom   12 type  1   force =     0.00184379   -0.00005463   -0.00068651
     atom   13 type  1   force =     0.00628001   -0.00080125   -0.00118627
     atom   14 type  1   force =     0.00030199    0.00015202    0.00079567
     atom   15 type  1   force =    -0.00283920   -0.00352549   -0.00110811
     atom   16 type  1   force =     0.00283083    0.00117835   -0.00049123
     atom   17 type  1   force =    -0.00043456   -0.00146228    0.00059735
     atom   18 type  1   force =    -0.00046015    0.00250851    0.00039352
     atom   19 type  1   force =     0.00134267   -0.00103420    0.00687391
     atom   20 type  1   force =     0.00209471    0.00121305    0.00279329
     atom   21 type  1   force =    -0.00072562    0.00085296   -0.00207664
     atom   22 type  1   force =     0.00229709    0.00229928   -0.00580472
     atom   23 type  1   force =     0.00097427    0.00128493   -0.00570395
     atom   24 type  1   force =     0.00083813    0.00092296   -0.00193228
     atom   25 type  1   force =     0.00402332   -0.00424617    0.00573542
     atom   26 type  1   force =    -0.00014182   -0.00324890    0.00365074
     atom   27 type  1   force =    -0.00214503   -0.00453569    0.00709274
     atom   28 type  1   force =     0.00052391   -0.00099041    0.00022780
     atom   29 type  1   force =     0.00032891    0.00019558   -0.00511852
     atom   30 type  1   force =     0.00308415   -0.00000361   -0.00469351
     atom   31 type  2   force =     0.00216540   -0.00228197    0.01237181
     atom   32 type  2   force =     0.00366323    0.00283100    0.01147129
     atom   33 type  2   force =     0.00495911   -0.00587268   -0.01794244
     atom   34 type  2   force =    -0.00200285   -0.00132559    0.00452573
     atom   35 type  2   force =     0.00497216    0.00276861   -0.01985726
     atom   36 type  2   force =     0.00817593   -0.00222776    0.00276669
     atom   37 type  2   force =     0.00905298   -0.00089275    0.00952917
     atom   38 type  2   force =    -0.00409585    0.00325707    0.00974812
     atom   39 type  3   force =     0.00046095    0.00196171    0.00027769

     Total force =     0.285429     Total SCF correction =     0.047192
     SCF correction compared to forces is large: reduce conv_thr to get better values

     Computing stress (Cartesian axis) and pressure

     negative rho (up, down):  2.670E-01 2.680E-01
          total   stress  (Ry/bohr**3)                   (kbar)     P=      -31.37
  -0.00021313   0.00001429  -0.00000880          -31.35        2.10       -1.29
   0.00001429  -0.00017172   0.00000396            2.10      -25.26        0.58
  -0.00000880   0.00000396  -0.00025480           -1.29        0.58      -37.48

     Entering Dynamics:    iteration =    20
                           time      =   0.0020 pico-seconds

ATOMIC_POSITIONS (angstrom)
Be            5.2222910620        3.0138206492        3.0013752552
Be            5.2242076897        3.0121292283       10.3058205533
Be            3.0018929107        6.8583633965        3.0012732070
Be            3.0006589787        6.8591044401       10.3059314907
Be            9.6658926785        3.0139622481        3.0016862378
Be            9.6665088038        3.0130401958       10.3056974966
Be            7.4437033274        6.8572490959        3.0014386370
Be            7.4443113491        6.8561905611       10.3055569771
Be           14.1095863421        3.0111797617        3.0012801601
Be           14.1083093594        3.0119421517       10.3059423589
Be           11.8861025111        6.8582149659        3.0014604371
Be           11.8879695840        6.8564723063       10.3058428139
Be            5.2230436265        3.0138721789        6.6535978549
Be            3.0022177580        6.8581367621        6.6534811597
Be            9.6673100481        3.0128546527        6.6536550890
Be            7.4429259561        6.8571138911        6.6807134382
Be           14.1080064325        3.0121227979        6.6537440249
Be           11.8870740548        6.8563739273        6.6535864530
Be            7.4438925303        5.5515824378        4.8256815977
Be           11.8867658960        5.5504118676        4.8265515170
Be            4.1332666680        6.2053710932        8.4792429787
Be            8.5764187906        6.2043507032        8.4803365202
Be            6.3109831066        6.2041045616        8.4800901740
Be           10.7560121621        6.2038023280        8.4805042891
Be            6.3540843239        3.6664890259        4.8266673412
Be           10.7992249566        3.6661115241        4.8272253049
Be            8.5339525479        3.6657297854        4.8269752243
Be           12.9769923791        3.6649411384        4.8279488674
Be            5.2233945836        4.3199198321        8.4806590296
Be            9.6663788176        4.3190024478        8.4809922417
W             5.2221667661        5.5765081685        3.4625047314
W             9.6661566970        5.5764701610        3.4624810879
W             7.4440495495        4.2936558742        7.1164332357
W            11.8880995215        4.2937613634        7.1159265999
W             7.4440803621        4.2938037680        9.8447361526
W            11.8880687958        4.2937683860        9.8447137166
W             5.2220935799        5.5765058826        6.1912947221
W             9.6662237763        5.5765742658        6.1912628807
H             7.4450536559        0.4791721674        5.9515724176

     kinetic energy (Ekin) =         161.81705668 Ry
     temperature           =      448226.18496907 K
     Ekin + Etot (const)   =       -1954.41567199 Ry
     Ions kinetic stress =         1048.68 (kbar)
                                      0.03          -0.32          -0.02
                                     -0.32        3142.85          95.10
                                     -0.02          95.10           3.15

     Linear momentum :    0.0000000000   -0.0000000000   -0.0000000000

     The maximum number of steps has been reached.

     End of molecular dynamics calculation

     diffusion coefficients :
     atom     1   D =       0.00000158 cm^2/s
     atom     2   D =       0.00000126 cm^2/s
     atom     3   D =       0.00000081 cm^2/s
     atom     4   D =       0.00000091 cm^2/s
     atom     5   D =       0.00000162 cm^2/s
     atom     6   D =       0.00000141 cm^2/s
     atom     7   D =       0.00000062 cm^2/s
     atom     8   D =       0.00000048 cm^2/s
     atom     9   D =       0.00000104 cm^2/s
     atom    10   D =       0.00000121 cm^2/s
     atom    11   D =       0.00000080 cm^2/s
     atom    12   D =       0.00000051 cm^2/s
     atom    13   D =       0.00000159 cm^2/s
     atom    14   D =       0.00000077 cm^2/s
     atom    15   D =       0.00000137 cm^2/s
     atom    16   D =       0.00000662 cm^2/s
     atom    17   D =       0.00000125 cm^2/s
     atom    18   D =       0.00000049 cm^2/s
     atom    19   D =       0.00000121 cm^2/s
     atom    20   D =       0.00000099 cm^2/s
     atom    21   D =       0.00000106 cm^2/s
     atom    22   D =       0.00000088 cm^2/s
     atom    23   D =       0.00000083 cm^2/s
     atom    24   D =       0.00000079 cm^2/s
     atom    25   D =       0.00000118 cm^2/s
     atom    26   D =       0.00000109 cm^2/s
     atom    27   D =       0.00000104 cm^2/s
     atom    28   D =       0.00000089 cm^2/s
     atom    29   D =       0.00000096 cm^2/s
     atom    30   D =       0.00000079 cm^2/s
     atom    31   D =       0.00000094 cm^2/s
     atom    32   D =       0.00000093 cm^2/s
     atom    33   D =       0.00000095 cm^2/s
     atom    34   D =       0.00000097 cm^2/s
     atom    35   D =       0.00000098 cm^2/s
     atom    36   D =       0.00000097 cm^2/s
     atom    37   D =       0.00000094 cm^2/s
     atom    38   D =       0.00000095 cm^2/s
     atom    39   D =       0.71285026 cm^2/s

     < D > =       0.01827933 cm^2/s

     Writing all to output data dir outdir/pwscf.save/

     General routines

     Parallel routines

   This run was terminated on:  18:59:20  14Jun2023

   JOB DONE.