     Program PWSCF v.7.2 starts on 14Jun2023 at  4:31:13

     Reading input from md_data/md_Be30W8H_30steps_2000eV_incident0_polar0.in
Warning: card &CELL ignored
Warning: card / ignored

     Current dimensions of program PWSCF are:
     Max number of different atomic species (ntypx) = 10
     Max number of k-points (npk) =  40000
     Max angular momentum in pseudopotentials (lmaxx) =  4

     gamma-point specific algorithms are used

     R & G space division:  proc/nbgrp/npool/nimage =      42
     Subspace diagonalization in iterative solution of the eigenvalue problem:
     a serial algorithm will be used

     Using Slab Decomposition

     bravais-lattice index     =            0
     lattice parameter (alat)  =      32.3337  a.u.
     unit-cell volume          =   15132.7767 (a.u.)^3
     number of atoms/cell      =           39
     number of atomic types    =            3
     number of electrons       =       233.00
     number of Kohn-Sham states=          140
     kinetic-energy cutoff     =     120.0000  Ry
     charge density cutoff     =     480.0000  Ry
     scf convergence threshold =      1.0E-03
     mixing beta               =       0.7000
     number of iterations used =            8  TF        mixing
     energy convergence thresh.=      0.0E+00
     force convergence thresh. =      0.0E+00
     Exchange-correlation=  SLA  PW   PBX  PBC
                           (   1   4   3   4   0   0   0)
     nstep                     =           30

     celldm(1)=  32.333659  celldm(2)=   0.000000  celldm(3)=   0.000000
     celldm(4)=   0.000000  celldm(5)=   0.000000  celldm(6)=   0.000000

     crystal axes: (cart. coord. in units of alat)
               a(1) = (   1.000000   0.000000   0.000000 )
               a(2) = (   0.000000   0.575603   0.000000 )
               a(3) = (   0.000000   0.000000   0.777734 )

     reciprocal axes: (cart. coord. in units 2 pi/alat)
               b(1) = (  1.000000  0.000000  0.000000 )
               b(2) = (  0.000000  1.737309  0.000000 )
               b(3) = (  0.000000  0.000000  1.285786 )

     PseudoPot. # 1 for Be read from file:
     q-e/pseudo/be_pbe_v1.4.uspp.F.UPF
     MD5 check sum: 5ecff1440924c7c98ad504bef30f5264
     Pseudo is Ultrasoft, Zval =  4.0
     Generated by new atomic code, or converted to UPF format
     Using radial grid of  769 points,  6 beta functions with:
                l(1) =   0
                l(2) =   0
                l(3) =   0
                l(4) =   1
                l(5) =   1
                l(6) =   2
     Q(r) pseudized with 10 coefficients,  rinner =    1.000   1.000   1.000
                                                       1.000   1.000

     PseudoPot. # 2 for W  read from file:
     q-e/pseudo/w_pbe_v1.2.uspp.F.UPF
     MD5 check sum: 9c083fa34c2a2ea0f02f1f893e16e1c8
     Pseudo is Ultrasoft + core correction, Zval = 14.0
     Generated by new atomic code, or converted to UPF format
     Using radial grid of  923 points,  8 beta functions with:
                l(1) =   0
                l(2) =   0
                l(3) =   0
                l(4) =   1
                l(5) =   1
                l(6) =   2
                l(7) =   2
                l(8) =   3
     Q(r) pseudized with  6 coefficients,  rinner =    1.350   1.350   1.350
                                                       1.350   1.350   1.350
                                                       1.350

     PseudoPot. # 3 for H  read from file:
     q-e/pseudo/h_pbe_v1.4.uspp.F.UPF
     MD5 check sum: 761ae9a214b05c3daf00ab9f6b793d6f
     Pseudo is Ultrasoft, Zval =  1.0
     Generated by new atomic code, or converted to UPF format
     Using radial grid of  615 points,  2 beta functions with:
                l(1) =   0
                l(2) =   0
     Q(r) pseudized with  8 coefficients,  rinner =    0.700

     atomic species   valence    mass     pseudopotential
        Be             4.00     9.01218     Be( 1.00)
        W             14.00   183.84000     W ( 1.00)
        H              1.00     2.01400     H ( 1.00)

     Starting magnetic structure
     atomic species   magnetization
        Be           0.000
        W            0.000
        H            0.000

     No symmetry found

   Cartesian axes

     site n.     atom                  positions (alat units)
         1           Be  tau(   1) = (   0.3052002   0.1753336   0.1753336  )
         2           Be  tau(   2) = (   0.3052002   0.1753336   0.6024006  )
         3           Be  tau(   3) = (   0.1753336   0.4002691   0.1753336  )
         4           Be  tau(   4) = (   0.1753336   0.4002691   0.6024006  )
         5           Be  tau(   5) = (   0.5649333   0.1753336   0.1753336  )
         6           Be  tau(   6) = (   0.5649333   0.1753336   0.6024006  )
         7           Be  tau(   7) = (   0.4350667   0.4002691   0.1753336  )
         8           Be  tau(   8) = (   0.4350667   0.4002691   0.6024006  )
         9           Be  tau(   9) = (   0.8246664   0.1753336   0.1753336  )
        10           Be  tau(  10) = (   0.8246664   0.1753336   0.6024006  )
        11           Be  tau(  11) = (   0.6947998   0.4002691   0.1753336  )
        12           Be  tau(  12) = (   0.6947998   0.4002691   0.6024006  )
        13           Be  tau(  13) = (   0.3052002   0.1753336   0.3888671  )
        14           Be  tau(  14) = (   0.1753336   0.4002691   0.3888671  )
        15           Be  tau(  15) = (   0.5649333   0.1753336   0.3888671  )
        16           Be  tau(  16) = (   0.4350667   0.4002691   0.3888671  )
        17           Be  tau(  17) = (   0.8246664   0.1753336   0.3888671  )
        18           Be  tau(  18) = (   0.6947998   0.4002691   0.3888671  )
        19           Be  tau(  19) = (   0.4350667   0.3237532   0.2821004  )
        20           Be  tau(  20) = (   0.6947998   0.3237532   0.2821004  )
        21           Be  tau(  21) = (   0.2415983   0.3620112   0.4956338  )
        22           Be  tau(  22) = (   0.5013314   0.3620112   0.4956338  )
        23           Be  tau(  23) = (   0.3688021   0.3620112   0.4956338  )
        24           Be  tau(  24) = (   0.6285351   0.3620112   0.4956338  )
        25           Be  tau(  25) = (   0.3714649   0.2135916   0.2821004  )
        26           Be  tau(  26) = (   0.6311979   0.2135916   0.2821004  )
        27           Be  tau(  27) = (   0.4986686   0.2135916   0.2821004  )
        28           Be  tau(  28) = (   0.7584017   0.2135916   0.2821004  )
        29           Be  tau(  29) = (   0.3052002   0.2518495   0.4956338  )
        30           Be  tau(  30) = (   0.5649333   0.2518495   0.4956338  )
        31           W   tau(  31) = (   0.3052002   0.3252906   0.2023523  )
        32           W   tau(  32) = (   0.5649333   0.3252906   0.2023523  )
        33           W   tau(  33) = (   0.4350667   0.2503121   0.4158858  )
        34           W   tau(  34) = (   0.6947998   0.2503121   0.4158858  )
        35           W   tau(  35) = (   0.4350667   0.2503121   0.5753819  )
        36           W   tau(  36) = (   0.6947998   0.2503121   0.5753819  )
        37           W   tau(  37) = (   0.3052002   0.3252906   0.3618484  )
        38           W   tau(  38) = (   0.5649333   0.3252906   0.3618484  )
        39           H   tau(  39) = (   0.4350667   0.5727566   0.3574413  )

     number of k points=     1  Gaussian smearing, width (Ry)=  0.0220
                       cart. coord. in units 2pi/alat
        k(    1) = (   0.0000000   0.0000000   0.0000000), wk =   1.0000000

     Initial potential from superposition of free atoms

     starting charge     232.1926, renormalised to     233.0000

     negative rho (up, down):  2.536E-01 2.536E-01
     Starting wfcs are  255 randomized atomic wfcs

     Self-consistent Calculation

     iteration #  1     ecut=   120.00 Ry     beta= 0.70
     Davidson diagonalization with overlap
     ethr =  1.00E-02,  avg # of iterations =  2.0

     negative rho (up, down):  2.676E-01 2.677E-01

     total energy              =   -2115.79154153 Ry
     estimated scf accuracy    <      17.49535733 Ry

     total magnetization       =     0.00 Bohr mag/cell
     absolute magnetization    =     0.07 Bohr mag/cell

[...]

     Magnetic moment per site  (integrated on atomic sphere of radius R)
     atom   1 (R=0.052)  charge=  2.6318   -0.0248
     atom   2 (R=0.052)  charge=  2.6319   -0.0058
     atom   3 (R=0.052)  charge=  2.5955   -0.0102
     atom   4 (R=0.052)  charge=  2.5929   -0.0914
     atom   5 (R=0.052)  charge=  2.6644   -0.0236
     atom   6 (R=0.052)  charge=  2.6921    0.0011
     atom   7 (R=0.052)  charge=  2.6918    0.0006
     atom   8 (R=0.052)  charge=  2.6648   -0.0174
     atom   9 (R=0.052)  charge=  2.5939    0.0905
     atom  10 (R=0.052)  charge=  2.5959    0.0192
     atom  11 (R=0.052)  charge=  2.6320   -0.0121
     atom  12 (R=0.052)  charge=  2.6316   -0.0014
     atom  13 (R=0.052)  charge=  2.6963   -0.0046
     atom  14 (R=0.052)  charge=  2.6239   -0.0162
     atom  15 (R=0.052)  charge=  2.7816   -0.0014
     atom  16 (R=0.052)  charge=  2.7810   -0.0171
     atom  17 (R=0.052)  charge=  2.6246    0.0296
     atom  18 (R=0.052)  charge=  2.6970   -0.0011
     atom  19 (R=0.052)  charge=  2.9442    0.0005
     atom  20 (R=0.052)  charge=  2.8823   -0.0031
     atom  21 (R=0.052)  charge=  2.8125   -0.0170
     atom  22 (R=0.052)  charge=  2.9008    0.0013
     atom  23 (R=0.052)  charge=  2.9001    0.0019
     atom  24 (R=0.052)  charge=  2.8769    0.0000
     atom  25 (R=0.052)  charge=  2.8763    0.0001
     atom  26 (R=0.052)  charge=  2.9004   -0.0031
     atom  27 (R=0.052)  charge=  2.9006    0.0019
     atom  28 (R=0.052)  charge=  2.8128    0.0188
     atom  29 (R=0.052)  charge=  2.8823    0.0012
     atom  30 (R=0.052)  charge=  2.9444   -0.0006
     atom  31 (R=0.063)  charge= 10.9145   -0.0522
     atom  32 (R=0.063)  charge= 10.9239   -0.0529
     atom  33 (R=0.063)  charge= 10.9884   -0.0208
     atom  34 (R=0.063)  charge= 10.9339    0.0269
     atom  35 (R=0.063)  charge= 10.9283   -0.0020
     atom  36 (R=0.063)  charge= 10.9084    0.0201
     atom  37 (R=0.063)  charge= 10.9314   -0.0027
     atom  38 (R=0.063)  charge= 10.9895    0.0023
     atom  39 (R=0.072)  charge=  0.9054    0.7859

     End of self-consistent calculation

 ------ SPIN UP ------------

          k = 0.0000 0.0000 0.0000 (168028 PWs)   bands (ev):

  -103.4370-103.3487-103.0004-102.9998-102.9710-102.9607-102.6954-102.6895
  -102.6237-102.6210-102.5543-102.5508-102.3249-102.3191-101.6672-101.6551
  -101.4243-101.3925-100.9300-100.9115-100.4959-100.4870-100.4698-100.4633
  -100.4088-100.4027-100.3937-100.3914-100.0495-100.0453 -74.9227 -74.9008
   -74.8815 -74.8774 -74.8605 -74.8520 -74.7729 -74.7609 -39.3708 -39.3471
   -39.3175 -39.2609 -39.2314 -39.1792 -39.1624 -39.0931 -39.0653 -39.0521
   -39.0309 -39.0085 -38.9909 -38.9655 -38.9574 -38.9297 -38.8955 -38.8850
   -38.8766 -38.8304 -38.7956 -38.7810 -38.7349 -38.7234  -8.7799  -7.7149
    -7.2599  -6.5857  -6.3616  -6.2852  -5.8366  -5.6753  -5.5294  -5.3394
[...]
     atom   17 type  1   force =   -12.11826643    4.89341889   -0.10102048
     atom   18 type  1   force =   -11.97600966  -11.74821846    0.07865416
     atom   19 type  1   force =     3.09496513   -4.68491893    7.93532603
     atom   20 type  1   force =   -13.77122664   -4.92173938    7.10015880
     atom   21 type  1   force =    11.64428342   -4.11172464   -6.29208231
     atom   22 type  1   force =    -1.37816922  -11.20596960   -8.19072863
     atom   23 type  1   force =     7.73378272   -9.96398006   -7.84048299
     atom   24 type  1   force =    -6.06388836  -10.86243662   -7.26243843
     atom   25 type  1   force =     6.12917757   10.90225824    7.21205017
     atom   26 type  1   force =    -7.67516065    9.89839169    7.86942199
     atom   27 type  1   force =     1.50685242   11.19805196    8.17796570
     atom   28 type  1   force =   -11.68373896    4.06232582    6.32111629
     atom   29 type  1   force =    13.78281645    4.95826387   -7.07658841
     atom   30 type  1   force =    -2.99565757    4.67438539   -7.96354816
     atom   31 type  2   force =    28.93552095   -5.95495225   31.84857322
     atom   32 type  2   force =   -11.36592783  -11.28049125   40.70477810
     atom   33 type  2   force =    13.56216369   23.47085317   -5.59753670
     atom   34 type  2   force =   -42.74907371   11.97673123   -2.66365168
     atom   35 type  2   force =    11.62196246   11.33712983  -40.62386783
     atom   36 type  2   force =   -28.86886010    5.92202634  -31.95634102
     atom   37 type  2   force =    42.79116960  -12.08826943    2.57836451
     atom   38 type  2   force =   -13.18548904  -23.36565046    5.54844288
     atom   39 type  3   force =    -1.16770938    0.01317785    0.25489511
     The core correction contribution to forces
     atom    1 type  1   force =     0.00000000    0.00000000    0.00000000
     atom    2 type  1   force =     0.00000000    0.00000000    0.00000000
     atom    3 type  1   force =     0.00000000    0.00000000    0.00000000
     atom    4 type  1   force =     0.00000000    0.00000000    0.00000000
     atom    5 type  1   force =     0.00000000    0.00000000    0.00000000
     atom    6 type  1   force =     0.00000000    0.00000000    0.00000000
     atom    7 type  1   force =     0.00000000    0.00000000    0.00000000
     atom    8 type  1   force =     0.00000000    0.00000000    0.00000000
     atom    9 type  1   force =     0.00000000    0.00000000    0.00000000
     atom   10 type  1   force =     0.00000000    0.00000000    0.00000000
     atom   11 type  1   force =     0.00000000    0.00000000    0.00000000
     atom   12 type  1   force =     0.00000000    0.00000000    0.00000000
     atom   13 type  1   force =     0.00000000    0.00000000    0.00000000
     atom   14 type  1   force =     0.00000000    0.00000000    0.00000000
     atom   15 type  1   force =     0.00000000    0.00000000    0.00000000
     atom   16 type  1   force =     0.00000000    0.00000000    0.00000000
     atom   17 type  1   force =     0.00000000    0.00000000    0.00000000
     atom   18 type  1   force =     0.00000000    0.00000000    0.00000000
     atom   19 type  1   force =     0.00000000    0.00000000    0.00000000
     atom   20 type  1   force =     0.00000000    0.00000000    0.00000000
     atom   21 type  1   force =     0.00000000    0.00000000    0.00000000
     atom   22 type  1   force =     0.00000000    0.00000000    0.00000000
     atom   23 type  1   force =     0.00000000    0.00000000    0.00000000
     atom   24 type  1   force =     0.00000000    0.00000000    0.00000000
     atom   25 type  1   force =     0.00000000    0.00000000    0.00000000
     atom   26 type  1   force =     0.00000000    0.00000000    0.00000000
     atom   27 type  1   force =     0.00000000    0.00000000    0.00000000
     atom   28 type  1   force =     0.00000000    0.00000000    0.00000000
     atom   29 type  1   force =     0.00000000    0.00000000    0.00000000
     atom   30 type  1   force =     0.00000000    0.00000000    0.00000000
     atom   31 type  2   force =    -0.00716658    0.00189912   -0.03593440
     atom   32 type  2   force =     0.00305385    0.00305658   -0.03491767
     atom   33 type  2   force =    -0.00619414   -0.01346538    0.00044706
     atom   34 type  2   force =     0.01220301   -0.00211777   -0.00478456
     atom   35 type  2   force =    -0.00305867   -0.00195172    0.03479113
     atom   36 type  2   force =     0.00710570   -0.00213076    0.03583172
     atom   37 type  2   force =    -0.01259294    0.00197259    0.00393734
     atom   38 type  2   force =     0.00660159    0.01348111   -0.00077582
     atom   39 type  3   force =     0.00000000    0.00000000    0.00000000
     The Hubbard contrib.    to forces
     atom    1 type  1   force =     0.00000000    0.00000000    0.00000000
     atom    2 type  1   force =     0.00000000    0.00000000    0.00000000
     atom    3 type  1   force =     0.00000000    0.00000000    0.00000000
     atom    4 type  1   force =     0.00000000    0.00000000    0.00000000
     atom    5 type  1   force =     0.00000000    0.00000000    0.00000000
     atom    6 type  1   force =     0.00000000    0.00000000    0.00000000
     atom    7 type  1   force =     0.00000000    0.00000000    0.00000000
     atom    8 type  1   force =     0.00000000    0.00000000    0.00000000
     atom    9 type  1   force =     0.00000000    0.00000000    0.00000000
     atom   10 type  1   force =     0.00000000    0.00000000    0.00000000
     atom   11 type  1   force =     0.00000000    0.00000000    0.00000000
     atom   12 type  1   force =     0.00000000    0.00000000    0.00000000
     atom   13 type  1   force =     0.00000000    0.00000000    0.00000000
     atom   14 type  1   force =     0.00000000    0.00000000    0.00000000
     atom   15 type  1   force =     0.00000000    0.00000000    0.00000000
     atom   16 type  1   force =     0.00000000    0.00000000    0.00000000
     atom   17 type  1   force =     0.00000000    0.00000000    0.00000000
     atom   18 type  1   force =     0.00000000    0.00000000    0.00000000
     atom   19 type  1   force =     0.00000000    0.00000000    0.00000000
     atom   20 type  1   force =     0.00000000    0.00000000    0.00000000
     atom   21 type  1   force =     0.00000000    0.00000000    0.00000000
     atom   22 type  1   force =     0.00000000    0.00000000    0.00000000
     atom   23 type  1   force =     0.00000000    0.00000000    0.00000000
     atom   24 type  1   force =     0.00000000    0.00000000    0.00000000
     atom   25 type  1   force =     0.00000000    0.00000000    0.00000000
     atom   26 type  1   force =     0.00000000    0.00000000    0.00000000
     atom   27 type  1   force =     0.00000000    0.00000000    0.00000000
     atom   28 type  1   force =     0.00000000    0.00000000    0.00000000
     atom   29 type  1   force =     0.00000000    0.00000000    0.00000000
     atom   30 type  1   force =     0.00000000    0.00000000    0.00000000
     atom   31 type  2   force =     0.00000000    0.00000000    0.00000000
     atom   32 type  2   force =     0.00000000    0.00000000    0.00000000
     atom   33 type  2   force =     0.00000000    0.00000000    0.00000000
     atom   34 type  2   force =     0.00000000    0.00000000    0.00000000
     atom   35 type  2   force =     0.00000000    0.00000000    0.00000000
     atom   36 type  2   force =     0.00000000    0.00000000    0.00000000
     atom   37 type  2   force =     0.00000000    0.00000000    0.00000000
     atom   38 type  2   force =     0.00000000    0.00000000    0.00000000
     atom   39 type  3   force =     0.00000000    0.00000000    0.00000000
     The SCF correction term to forces
     atom    1 type  1   force =     0.00301694    0.00103582   -0.00109163
     atom    2 type  1   force =     0.00299688   -0.00047470    0.00092026
     atom    3 type  1   force =     0.00541570   -0.00025663   -0.00059750
     atom    4 type  1   force =     0.00447496    0.00043849    0.00073282
     atom    5 type  1   force =    -0.00265342   -0.00092136   -0.00016534
     atom    6 type  1   force =    -0.00580797   -0.00220316    0.00100357
     atom    7 type  1   force =    -0.00080683   -0.00011237   -0.00072264
     atom    8 type  1   force =    -0.00043593    0.00079756    0.00102067
     atom    9 type  1   force =    -0.00296586   -0.00153602    0.00001505
     atom   10 type  1   force =    -0.00032987   -0.00204342    0.00069948
     atom   11 type  1   force =    -0.00461800    0.00161109    0.00167562
     atom   12 type  1   force =    -0.00480857    0.00400016    0.00013163
     atom   13 type  1   force =     0.00238741   -0.00169489   -0.00055183
     atom   14 type  1   force =     0.00359489    0.00124068   -0.00031945
     atom   15 type  1   force =    -0.00117322   -0.00335262   -0.00145773
     atom   16 type  1   force =     0.00102318    0.00246912   -0.00089000
     atom   17 type  1   force =    -0.00480649   -0.00236319   -0.00251992
     atom   18 type  1   force =    -0.00439840    0.00705763   -0.00221925
     atom   19 type  1   force =    -0.00011258    0.00082536   -0.00234770
     atom   20 type  1   force =    -0.00433264    0.00164744   -0.00044934
     atom   21 type  1   force =     0.00351446    0.00081220    0.00099458
     atom   22 type  1   force =    -0.00135398    0.00175560   -0.00005801
     atom   23 type  1   force =     0.00129434    0.00131985    0.00115764
     atom   24 type  1   force =    -0.00433836    0.00426679   -0.00266000
     atom   25 type  1   force =     0.00091558   -0.00034958   -0.00211744
     atom   26 type  1   force =    -0.00288466   -0.00118705   -0.00030359
     atom   27 type  1   force =    -0.00077601   -0.00075628   -0.00135459
     atom   28 type  1   force =    -0.00319091   -0.00269844   -0.00159585
     atom   29 type  1   force =     0.00225326   -0.00051770    0.00122822
     atom   30 type  1   force =    -0.00467918   -0.00040640   -0.00151825
     atom   31 type  2   force =     0.00939304    0.00180247   -0.00669955
     atom   32 type  2   force =    -0.00908462    0.00417088   -0.00364367
     atom   33 type  2   force =     0.00108075   -0.00277305   -0.00023147
     atom   34 type  2   force =    -0.01506564   -0.00263611   -0.01346820
     atom   35 type  2   force =    -0.00209135   -0.00197147    0.00690122
     atom   36 type  2   force =    -0.01589756   -0.00063943   -0.00129277
     atom   37 type  2   force =     0.00860897    0.00253671   -0.00692078
     atom   38 type  2   force =    -0.00541342    0.00617901   -0.00513740
     atom   39 type  3   force =     0.00026268   -0.00091620   -0.00008748

     Total force =     0.283770     Total SCF correction =     0.041623
     SCF correction compared to forces is large: reduce conv_thr to get better values

     Computing stress (Cartesian axis) and pressure

     negative rho (up, down):  2.665E-01 2.680E-01
          total   stress  (Ry/bohr**3)                   (kbar)     P=      -32.21
  -0.00022025   0.00001656  -0.00000949          -32.40        2.44       -1.40
   0.00001656  -0.00017691   0.00000735            2.44      -26.02        1.08
  -0.00000949   0.00000735  -0.00025963           -1.40        1.08      -38.19

     Entering Dynamics:    iteration =    30
                           time      =   0.0030 pico-seconds

ATOMIC_POSITIONS (angstrom)
Be            5.2386825675        3.0066814199        3.0030075972
Be            5.2430051782        3.0029322152       10.3039039290
Be            3.0204698859        6.8462212366        3.0028567338
Be            3.0176712900        6.8478501999       10.3042979821
Be            9.6817903113        3.0070386309        3.0037844843
Be            9.6832040520        3.0050243574       10.3037694346
Be            7.4594854130        6.8436561327        3.0034501980
Be            7.4608542836        6.8416574868       10.3034376846
Be           14.1249542339        3.0008605878        3.0029037145
Be           14.1222332212        3.0024921726       10.3044049203
Be           11.8996258393        6.8457852517        3.0032459496
Be           11.9038827271        6.8419930243       10.3041676050
Be            5.2403730724        3.0057706389        6.6535353607
Be            3.0212369546        6.8467939756        6.6531523084
Be            9.6847847613        3.0045688467        6.6537270882
Be            7.4576982137        6.8444119481        6.6534402908
Be           14.1214391010        3.0027469907        6.6538725723
Be           11.9020123678        6.8420252790        6.6534813596
Be            7.4598383097        5.5417040631        4.8255423805
Be           11.9012023012        5.5396604499        4.8261951055
Be            4.1487703015        6.1949981565        8.4777052256
Be            8.5908112779        6.1932365704        8.4799321005
Be            6.3279467164        6.1924895686        8.4795374466
Be           10.7741193324        6.1916253264        8.4806690285
Be            6.3685988094        3.6573050433        4.8265764047
Be           10.8146487920        3.6561891766        4.8275452187
Be            8.5517569030        3.6555002803        4.8273129198
Be           12.9938349949        3.6535924636        4.8293569400
Be            5.2414756203        4.3090787033        8.4809900570
Be            9.6828212168        4.3070058427        8.4815479286
W             5.2385042063        5.5656144768        3.4627635574
W             9.6823621754        5.5655496124        3.4627394918
W             7.4601690927        4.2829143748        7.1160141365
W            11.9041872505        4.2830478184        7.1159688888
W             7.4602485379        4.2831495774        9.8444880036
W            11.9041032484        4.2830759348        9.8444516065
W             5.2384236150        5.5656455777        6.1912661827
W             9.6824406101        5.5657892239        6.1912016187
H            -6.5498724290        9.7988264085        6.1170716958

     kinetic energy (Ekin) =         161.94194302 Ry
     temperature           =      448572.11467963 K
     Ekin + Etot (const)   =       -1954.29720722 Ry
     Ions kinetic stress =         1049.49 (kbar)
                                   3148.30           0.83          -0.54
                                      0.83           0.12           0.00
                                     -0.54           0.00           0.04

     Linear momentum :   -0.0000000000   -0.0000000000    0.0000000000

     The maximum number of steps has been reached.

     End of molecular dynamics calculation

     diffusion coefficients :
     atom     1   D =       0.00000181 cm^2/s
     atom     2   D =       0.00000251 cm^2/s
     atom     3   D =       0.00000237 cm^2/s
     atom     4   D =       0.00000176 cm^2/s
     atom     5   D =       0.00000169 cm^2/s
     atom     6   D =       0.00000180 cm^2/s
     atom     7   D =       0.00000150 cm^2/s
     atom     8   D =       0.00000189 cm^2/s
     atom     9   D =       0.00000123 cm^2/s
     atom    10   D =       0.00000086 cm^2/s
     atom    11   D =       0.00000082 cm^2/s
     atom    12   D =       0.00000164 cm^2/s
     atom    13   D =       0.00000202 cm^2/s
     atom    14   D =       0.00000249 cm^2/s
     atom    15   D =       0.00000201 cm^2/s
     atom    16   D =       0.00000111 cm^2/s
     atom    17   D =       0.00000073 cm^2/s
     atom    18   D =       0.00000129 cm^2/s
     atom    19   D =       0.00000139 cm^2/s
     atom    20   D =       0.00000093 cm^2/s
     atom    21   D =       0.00000127 cm^2/s
     atom    22   D =       0.00000092 cm^2/s
     atom    23   D =       0.00000172 cm^2/s
     atom    24   D =       0.00000216 cm^2/s
     atom    25   D =       0.00000093 cm^2/s
     atom    26   D =       0.00000120 cm^2/s
     atom    27   D =       0.00000207 cm^2/s
     atom    28   D =       0.00000170 cm^2/s
     atom    29   D =       0.00000207 cm^2/s
     atom    30   D =       0.00000155 cm^2/s
     atom    31   D =       0.00000148 cm^2/s
     atom    32   D =       0.00000144 cm^2/s
     atom    33   D =       0.00000141 cm^2/s
     atom    34   D =       0.00000140 cm^2/s
     atom    35   D =       0.00000143 cm^2/s
     atom    36   D =       0.00000139 cm^2/s
     atom    37   D =       0.00000147 cm^2/s
     atom    38   D =       0.00000145 cm^2/s
     atom    39   D =       1.07088979 cm^2/s

     < D > =       0.02746022 cm^2/s

     Writing all to output data dir outdir/pwscf.save/

     General routines

     Parallel routines

   This run was terminated on:  11:12:30  14Jun2023

   JOB DONE.