     Program PWSCF v.7.2 starts on 14Jun2023 at 19:30: 6

     Reading input from md_data/md_Be18W4H_15steps_1000eV_incident0_polar0.in
Warning: card &CELL ignored
Warning: card / ignored

     Current dimensions of program PWSCF are:
     Max number of different atomic species (ntypx) = 10
     Max number of k-points (npk) =  40000
     Max angular momentum in pseudopotentials (lmaxx) =  4

     File outdir/pwscf.md deleted, as requested

     gamma-point specific algorithms are used

     R & G space division:  proc/nbgrp/npool/nimage =      42
     Subspace diagonalization in iterative solution of the eigenvalue problem:
     a serial algorithm will be used

     Using Slab Decomposition

     bravais-lattice index     =            0
     lattice parameter (alat)  =      20.1561  a.u.
     unit-cell volume          =    8970.6078 (a.u.)^3
     number of atoms/cell      =           23
     number of atomic types    =            3
     number of electrons       =       129.00
     number of Kohn-Sham states=           78
     kinetic-energy cutoff     =     120.0000  Ry
     charge density cutoff     =     480.0000  Ry
     scf convergence threshold =      1.0E-03
     mixing beta               =       0.7000
     number of iterations used =            8  TF        mixing
     energy convergence thresh.=      0.0E+00
     force convergence thresh. =      0.0E+00
     Exchange-correlation=  SLA  PW   PBX  PBC
                           (   1   4   3   4   0   0   0)
     nstep                     =           15

     celldm(1)=  20.156086  celldm(2)=   0.000000  celldm(3)=   0.000000
     celldm(4)=   0.000000  celldm(5)=   0.000000  celldm(6)=   0.000000

     crystal axes: (cart. coord. in units of alat)
               a(1) = (   1.000000   0.000000   0.000000 )
               a(2) = (   0.000000   1.033368   0.000000 )
               a(3) = (   0.000000   0.000000   1.060104 )

     reciprocal axes: (cart. coord. in units 2 pi/alat)
               b(1) = (  1.000000  0.000000  0.000000 )
               b(2) = (  0.000000  0.967710  0.000000 )
               b(3) = (  0.000000  0.000000  0.943304 )

     PseudoPot. # 1 for Be read from file:
     q-e/pseudo/be_pbe_v1.4.uspp.F.UPF
     MD5 check sum: 5ecff1440924c7c98ad504bef30f5264
     Pseudo is Ultrasoft, Zval =  4.0
     Generated by new atomic code, or converted to UPF format
     Using radial grid of  769 points,  6 beta functions with:
                l(1) =   0
                l(2) =   0
                l(3) =   0
                l(4) =   1
                l(5) =   1
                l(6) =   2
     Q(r) pseudized with 10 coefficients,  rinner =    1.000   1.000   1.000
                                                       1.000   1.000

     PseudoPot. # 2 for W  read from file:
     q-e/pseudo/w_pbe_v1.2.uspp.F.UPF
     MD5 check sum: 9c083fa34c2a2ea0f02f1f893e16e1c8
     Pseudo is Ultrasoft + core correction, Zval = 14.0
     Generated by new atomic code, or converted to UPF format
     Using radial grid of  923 points,  8 beta functions with:
                l(1) =   0
                l(2) =   0
                l(3) =   0
                l(4) =   1
                l(5) =   1
                l(6) =   2
                l(7) =   2
                l(8) =   3
     Q(r) pseudized with  6 coefficients,  rinner =    1.350   1.350   1.350
                                                       1.350   1.350   1.350
                                                       1.350

     PseudoPot. # 3 for H  read from file:
     q-e/pseudo/h_pbe_v1.4.uspp.F.UPF
     MD5 check sum: 761ae9a214b05c3daf00ab9f6b793d6f
     Pseudo is Ultrasoft, Zval =  1.0
     Generated by new atomic code, or converted to UPF format
     Using radial grid of  615 points,  2 beta functions with:
                l(1) =   0
                l(2) =   0
     Q(r) pseudized with  8 coefficients,  rinner =    0.700

     atomic species   valence    mass     pseudopotential
        Be             4.00     9.01218     Be( 1.00)
        W             14.00   183.84000     W ( 1.00)
        H              1.00     2.01400     H ( 1.00)

     Starting magnetic structure
     atomic species   magnetization
        Be           0.000
        W            0.000
        H            0.000

     No symmetry found

   Cartesian axes

     site n.     atom                  positions (alat units)
         1           Be  tau(   1) = (   0.3958364   0.1875092   0.1875092  )
         2           Be  tau(   2) = (   0.3958364   0.1875092   0.8725945  )
         3           Be  tau(   3) = (   0.1875092   0.5483425   0.1875092  )
         4           Be  tau(   4) = (   0.1875092   0.5483425   0.8725945  )
         5           Be  tau(   5) = (   0.8124908   0.1875092   0.1875092  )
         6           Be  tau(   6) = (   0.8124908   0.1875092   0.8725945  )
         7           Be  tau(   7) = (   0.6041636   0.5483425   0.1875092  )
         8           Be  tau(   8) = (   0.6041636   0.5483425   0.8725945  )
         9           Be  tau(   9) = (   0.3958364   0.1875092   0.5300518  )
        10           Be  tau(  10) = (   0.1875092   0.5483425   0.5300518  )
        11           Be  tau(  11) = (   0.8124908   0.1875092   0.5300518  )
        12           Be  tau(  12) = (   0.6041636   0.5483425   0.5300518  )
        13           Be  tau(  13) = (   0.6041636   0.4255985   0.3587805  )
        14           Be  tau(  14) = (   0.2938086   0.4869705   0.7013231  )
        15           Be  tau(  15) = (   0.4978642   0.4869705   0.7013231  )
        16           Be  tau(  16) = (   0.5021358   0.2488812   0.3587805  )
        17           Be  tau(  17) = (   0.7061914   0.2488812   0.3587805  )
        18           Be  tau(  18) = (   0.3958364   0.3102532   0.7013231  )
        19           W   tau(  19) = (   0.3958364   0.4280647   0.2308516  )
        20           W   tau(  20) = (   0.6041636   0.3077870   0.5733943  )
        21           W   tau(  21) = (   0.6041636   0.3077870   0.8292520  )
        22           W   tau(  22) = (   0.3958364   0.4280647   0.4867094  )
        23           H   tau(  23) = (   0.6041636   0.8458586   0.5300518  )

     number of k points=     1  Gaussian smearing, width (Ry)=  0.0220
                       cart. coord. in units 2pi/alat
        k(    1) = (   0.0000000   0.0000000   0.0000000), wk =   1.0000000

     Initial potential from superposition of free atoms

     starting charge     128.5958, renormalised to     129.0000

     negative rho (up, down):  1.276E-01 1.276E-01
     Starting wfcs are  143 randomized atomic wfcs

     Self-consistent Calculation

     iteration #  1     ecut=   120.00 Ry     beta= 0.70
     Davidson diagonalization with overlap
     ethr =  1.00E-02,  avg # of iterations =  2.0

     negative rho (up, down):  1.368E-01 1.369E-01

     total energy              =   -1141.98874067 Ry
     estimated scf accuracy    <       7.62105877 Ry

     total magnetization       =     0.00 Bohr mag/cell
     absolute magnetization    =     0.05 Bohr mag/cell

[...]

     iteration #  8     ecut=   120.00 Ry     beta= 0.70
     Davidson diagonalization with overlap
     c_bands:  1 eigenvalues not converged
     ethr =  2.27E-05,  avg # of iterations = 13.0

[...]

     Magnetic moment per site  (integrated on atomic sphere of radius R)
     atom   1 (R=0.084)  charge=  2.6244  magn= -0.0001
     atom   2 (R=0.084)  charge=  2.6240  magn= -0.0002
     atom   3 (R=0.084)  charge=  2.5875  magn= -0.0005
     atom   4 (R=0.084)  charge=  2.5719  magn=  0.0020
     atom   5 (R=0.084)  charge=  2.5715  magn=  0.0006
     atom   6 (R=0.084)  charge=  2.5869  magn= -0.0004
     atom   7 (R=0.084)  charge=  2.6217  magn=  0.0005
     atom   8 (R=0.084)  charge=  2.6219  magn= -0.0010
     atom   9 (R=0.084)  charge=  2.6876  magn=  0.0000
     atom  10 (R=0.084)  charge=  2.6126  magn= -0.0014
     atom  11 (R=0.084)  charge=  2.6100  magn=  0.0001
     atom  12 (R=0.084)  charge=  2.6760  magn= -0.0005
     atom  13 (R=0.084)  charge=  2.8768  magn=  0.0002
     atom  14 (R=0.084)  charge=  2.8096  magn=  0.0005
     atom  15 (R=0.084)  charge=  2.8748  magn=  0.0001
     atom  16 (R=0.084)  charge=  2.8755  magn=  0.0000
     atom  17 (R=0.084)  charge=  2.8089  magn=  0.0001
     atom  18 (R=0.084)  charge=  2.8766  magn=  0.0001
     atom  19 (R=0.101)  charge= 10.9057  magn= -0.0016
     atom  20 (R=0.101)  charge= 10.9176  magn= -0.0001
     atom  21 (R=0.101)  charge= 10.9046  magn= -0.0075
     atom  22 (R=0.101)  charge= 10.9207  magn= -0.0004
     atom  23 (R=0.123)  charge=  1.0688  magn=  0.0318

     End of self-consistent calculation

 ------ SPIN UP ------------

          k = 0.0000 0.0000 0.0000 ( 99567 PWs)   bands (ev):

  -103.9130-103.9071-103.5077-103.4808-103.3314-103.3307-103.0198-102.9985
  -102.9772-102.9645-102.6105-102.5469-101.2212-101.2048-100.7208-100.7047
  -100.6992-100.6991 -75.2802 -75.2513 -75.2159 -75.2039 -39.7444 -39.5896
   -39.5408 -39.4691 -39.4192 -39.3598 -39.3503 -39.3401 -39.3365 -39.2691
   -39.1340 -39.1135  -8.2057  -6.8711  -6.0093  -5.8119  -5.5019  -5.2314
    -4.8893  -4.8783  -4.4029  -4.1907  -4.1446  -3.9433  -3.7811  -3.4863
    -3.4029  -3.1854  -3.0556  -2.7697  -2.7428  -2.5227  -2.4389  -2.4304
    -2.3033  -2.0960  -2.0657  -1.7940  -1.7454  -1.6805  -1.6219  -1.5224
    -1.3467  -1.3349  -1.2650  -1.1811  -1.0205  -0.8008  -0.7960  -0.6694
    -0.5927  -0.4369  -0.4089  -0.3795  -0.1709  -0.1151

 ------ SPIN DOWN ----------

[...]

     the Fermi energy is    -1.4107 ev

!    total energy              =   -1142.37434973 Ry
     estimated scf accuracy    <       0.00019592 Ry
     smearing contrib. (-TS)   =      -0.07307902 Ry
     internal energy E=F+TS    =   -1142.30127072 Ry

[...]

     convergence has been achieved in  26 iterations

[...]

     Forces acting on atoms (cartesian axes, Ry/au):

     atom    1 type  1   force =     0.00136253    0.04953260    0.01532718
     atom    2 type  1   force =     0.04166644    0.02628731   -0.01512797
     atom    3 type  1   force =     0.03450129   -0.02041227    0.01027657
     atom    4 type  1   force =     0.01267241   -0.00781223   -0.00991811
     atom    5 type  1   force =    -0.01277807    0.00729523    0.00996600
     atom    6 type  1   force =    -0.03466889    0.02085774   -0.01044590
     atom    7 type  1   force =    -0.04121241   -0.02555473    0.01489476
     atom    8 type  1   force =    -0.00015581   -0.04858609   -0.01428605
     atom    9 type  1   force =     0.03621091    0.05703035   -0.00053786
     atom   10 type  1   force =     0.04224848   -0.02430785   -0.00232442
     atom   11 type  1   force =    -0.04334175    0.02275749    0.00241665
     atom   12 type  1   force =    -0.02880504   -0.02075776    0.00037290
     atom   13 type  1   force =    -0.02923380    0.00131912   -0.00108916
     atom   14 type  1   force =    -0.00814270    0.00611973   -0.02137449
     atom   15 type  1   force =     0.01475452   -0.02543960   -0.00051312
     atom   16 type  1   force =    -0.01763726    0.02173714    0.00179047
[...]
     absolute magnetization    =     4.88 Bohr mag/cell

     convergence has been achieved in  11 iterations

     negative rho (up, down):  1.356E-01 1.325E-01

     Forces acting on atoms (cartesian axes, Ry/au):

     atom    1 type  1   force =     0.00563729    0.04549895    0.01087755
     atom    2 type  1   force =     0.03641543    0.02615670   -0.01125234
     atom    3 type  1   force =     0.03368086   -0.01954431    0.01191656
     atom    4 type  1   force =     0.01264556   -0.00700655   -0.00886886
     atom    5 type  1   force =    -0.01227528    0.00754948    0.01151109
     atom    6 type  1   force =    -0.03004627    0.01895023   -0.01144699
     atom    7 type  1   force =    -0.03814585   -0.02610216    0.01036263
     atom    8 type  1   force =    -0.00199958   -0.04437433   -0.01140891
     atom    9 type  1   force =     0.04443868    0.06830479    0.00157085
     atom   10 type  1   force =     0.04268387   -0.02182994   -0.00494020
     atom   11 type  1   force =    -0.03882121    0.02436986    0.00080206
     atom   12 type  1   force =   -16.41512042    2.45603359    2.55462890
     atom   13 type  1   force =    -0.03180880    0.00486065    0.00570604
     atom   14 type  1   force =    -0.01109913    0.00757104   -0.02289376
     atom   15 type  1   force =     0.02206162   -0.01365971   -0.01338605
     atom   16 type  1   force =    -0.01819835    0.02240437    0.00722310
     atom   17 type  1   force =     0.01055328   -0.00319713    0.02131687
     atom   18 type  1   force =     0.03090400   -0.00470013   -0.00894242
     atom   19 type  2   force =     0.04499155   -0.02391315    0.07292526
     atom   20 type  2   force =    -0.04993939   -0.02336626    0.00491288
     atom   21 type  2   force =    -0.04129704    0.03104004   -0.07469264
     atom   22 type  2   force =     0.02558664   -0.01768669   -0.00040751
     atom   23 type  3   force =    16.37915253   -2.50735937   -2.54551413
     The non-local contrib.  to forces
     atom    1 type  1   force =    -0.04847110   -0.23582885   -0.11493785
     atom    2 type  1   force =    -0.16675190   -0.16821570    0.11782258
     atom    3 type  1   force =    -0.21766098    0.12863422    0.03039111
     atom    4 type  1   force =    -0.10627822    0.06360792    0.23694422
     atom    5 type  1   force =     0.10863708   -0.05852182   -0.23977399
     atom    6 type  1   force =     0.22268877   -0.12804260   -0.03064630
     atom    7 type  1   force =     0.15549295    0.16982349   -0.13791838
     atom    8 type  1   force =     0.06273721    0.22990970    0.13624771
     atom    9 type  1   force =    -0.19299388   -0.30618406   -0.00398424
     atom   10 type  1   force =    -0.24170758    0.13983733   -0.11782039
     atom   11 type  1   force =     0.24016012   -0.15090663    0.11209783
     atom   12 type  1   force =     0.65075852   -0.19912507   -0.11473513
     atom   13 type  1   force =     0.08533283    0.11575380   -0.00134458
     atom   14 type  1   force =    -0.12525055    0.06198854    0.09822147
     atom   15 type  1   force =     0.02813513    0.14665506   -0.00824275
     atom   16 type  1   force =    -0.01774398   -0.10302783   -0.03220388
     atom   17 type  1   force =     0.11518654   -0.07651079   -0.10482082
     atom   18 type  1   force =    -0.08641340   -0.05800964    0.03125268
     atom   19 type  2   force =    -0.06715689    0.02331342   -0.26557005
     atom   20 type  2   force =     0.14812383   -0.03360561   -0.03760892
     atom   21 type  2   force =     0.05052887   -0.04602552    0.26209728
     atom   22 type  2   force =    -0.09772014    0.11510119    0.05047889
     atom   23 type  3   force =     0.97822261   -0.12548629   -0.15573958
     The ionic contribution  to forces
     atom    1 type  1   force =    -2.83224932   -7.81650271   -4.29414281
     atom    2 type  1   force =    -5.10239507   -6.51639277    4.29310242
     atom    3 type  1   force =    -5.81905156    4.26811381   -2.58974004
     atom    4 type  1   force =    -3.70946878    3.10525639    2.76126119
     atom    5 type  1   force =     3.70194833   -3.07798003   -2.74302985
     atom    6 type  1   force =     5.81113213   -4.24228761    2.57003099
     atom    7 type  1   force =     5.10719451    6.36305891   -4.23653952
     atom    8 type  1   force =     2.83796906    7.67107891    4.22742957
     atom    9 type  1   force =    -6.41210185  -11.33438200    0.00061795
     atom   10 type  1   force =    -7.51752633    5.35241144   -0.09352939
     atom   11 type  1   force =     7.48376904   -5.23792347    0.09485188
     atom   12 type  1   force =   -17.29832423    8.86994825    3.07397175
     atom   13 type  1   force =     8.16155826    5.03968861   -4.23446106
     atom   14 type  1   force =    -6.73654305    4.37895547    4.71760997
     atom   15 type  1   force =     0.30647847    9.48175453    4.38182708
     atom   16 type  1   force =     0.29272825   -9.38755368   -5.09267033
     atom   17 type  1   force =     6.78006935   -4.22822599   -4.65249979
     atom   18 type  1   force =    -8.01382398   -4.52239175    5.10099735
     atom   19 type  2   force =   -10.63990828    6.83159704  -21.55802475
     atom   20 type  2   force =    20.85649900   -9.87258572    1.00018737
     atom   21 type  2   force =    10.92010182   -6.60506918   21.41614227
     atom   22 type  2   force =   -18.53805291   13.21282994   -1.09196101
     atom   23 type  3   force =    20.35999714   -1.73339839   -3.05143122
     The local contribution  to forces
     atom    1 type  1   force =     2.88389950    8.10066320    4.41672704
     atom    2 type  1   force =     5.30940636    6.71599471   -4.42193601
     atom    3 type  1   force =     6.06760583   -4.41857462    2.56874087
     atom    4 type  1   force =     3.82746834   -3.17895682   -3.00771520
     atom    5 type  1   force =    -3.82230993    3.14652420    2.99194871
     atom    6 type  1   force =    -6.06924993    4.39568669   -2.55170844
     atom    7 type  1   force =    -5.30066061   -6.56289834    4.37967243
     atom    8 type  1   force =    -2.90347776   -7.95570531   -4.37464635
     atom    9 type  1   force =     6.64846191   11.71206275    0.00878231
     atom   10 type  1   force =     7.79634352   -5.51598070    0.21007777
     atom   11 type  1   force =    -7.76382219    5.41817558   -0.20336787
     atom   12 type  1   force =     0.24083078   -6.20720771   -0.40539104
     atom   13 type  1   force =    -8.27655600   -5.15592379    4.24126586
     atom   14 type  1   force =     6.84984206   -4.43718983   -4.83296919
     atom   15 type  1   force =    -0.31172421   -9.65088445   -4.37813313
     atom   16 type  1   force =    -0.29283866    9.51407975    5.13231358
     atom   17 type  1   force =    -6.88347749    4.30417914    4.78071526
     atom   18 type  1   force =     8.13450662    4.57645754   -5.13398238
     atom   19 type  2   force =    10.75481427   -6.88937482   21.91442305
     atom   20 type  2   force =   -21.05111095    9.88185808   -0.92820099
     atom   21 type  2   force =   -11.01394199    6.69086611  -21.79430202
     atom   22 type  2   force =    18.66689092  -13.37075377    1.05368506
     atom   23 type  3   force =    -4.95772270   -0.64830044    0.66171342
     The core correction contribution to forces
     atom    1 type  1   force =     0.00000000    0.00000000    0.00000000
     atom    2 type  1   force =     0.00000000    0.00000000    0.00000000
     atom    3 type  1   force =     0.00000000    0.00000000    0.00000000
     atom    4 type  1   force =     0.00000000    0.00000000    0.00000000
     atom    5 type  1   force =     0.00000000    0.00000000    0.00000000
     atom    6 type  1   force =     0.00000000    0.00000000    0.00000000
     atom    7 type  1   force =     0.00000000    0.00000000    0.00000000
     atom    8 type  1   force =     0.00000000    0.00000000    0.00000000
     atom    9 type  1   force =     0.00000000    0.00000000    0.00000000
     atom   10 type  1   force =     0.00000000    0.00000000    0.00000000
     atom   11 type  1   force =     0.00000000    0.00000000    0.00000000
     atom   12 type  1   force =     0.00000000    0.00000000    0.00000000
     atom   13 type  1   force =     0.00000000    0.00000000    0.00000000
     atom   14 type  1   force =     0.00000000    0.00000000    0.00000000
     atom   15 type  1   force =     0.00000000    0.00000000    0.00000000
     atom   16 type  1   force =     0.00000000    0.00000000    0.00000000
     atom   17 type  1   force =     0.00000000    0.00000000    0.00000000
     atom   18 type  1   force =     0.00000000    0.00000000    0.00000000
     atom   19 type  2   force =    -0.00581097    0.00217855   -0.03631323
     atom   20 type  2   force =     0.00938631   -0.00046970    0.00015664
     atom   21 type  2   force =     0.00262781   -0.00509311    0.03756568
     atom   22 type  2   force =    -0.00567745    0.00933575   -0.00028867
     atom   23 type  3   force =     0.00000000    0.00000000    0.00000000
     The Hubbard contrib.    to forces
     atom    1 type  1   force =     0.00000000    0.00000000    0.00000000
     atom    2 type  1   force =     0.00000000    0.00000000    0.00000000
     atom    3 type  1   force =     0.00000000    0.00000000    0.00000000
     atom    4 type  1   force =     0.00000000    0.00000000    0.00000000
     atom    5 type  1   force =     0.00000000    0.00000000    0.00000000
     atom    6 type  1   force =     0.00000000    0.00000000    0.00000000
     atom    7 type  1   force =     0.00000000    0.00000000    0.00000000
     atom    8 type  1   force =     0.00000000    0.00000000    0.00000000
     atom    9 type  1   force =     0.00000000    0.00000000    0.00000000
     atom   10 type  1   force =     0.00000000    0.00000000    0.00000000
     atom   11 type  1   force =     0.00000000    0.00000000    0.00000000
     atom   12 type  1   force =     0.00000000    0.00000000    0.00000000
     atom   13 type  1   force =     0.00000000    0.00000000    0.00000000
     atom   14 type  1   force =     0.00000000    0.00000000    0.00000000
     atom   15 type  1   force =     0.00000000    0.00000000    0.00000000
     atom   16 type  1   force =     0.00000000    0.00000000    0.00000000
     atom   17 type  1   force =     0.00000000    0.00000000    0.00000000
     atom   18 type  1   force =     0.00000000    0.00000000    0.00000000
     atom   19 type  2   force =     0.00000000    0.00000000    0.00000000
     atom   20 type  2   force =     0.00000000    0.00000000    0.00000000
     atom   21 type  2   force =     0.00000000    0.00000000    0.00000000
     atom   22 type  2   force =     0.00000000    0.00000000    0.00000000
     atom   23 type  3   force =     0.00000000    0.00000000    0.00000000
     The SCF correction term to forces
     atom    1 type  1   force =     0.00167571   -0.00302224    0.00320253
     atom    2 type  1   force =    -0.00462646   -0.00541910   -0.00026995
     atom    3 type  1   force =     0.00200507    0.00209272    0.00249599
     atom    4 type  1   force =     0.00014173    0.00289640    0.00061230
     atom    5 type  1   force =    -0.00133325   -0.00266242    0.00233760
     atom    6 type  1   force =     0.00460027   -0.00659581    0.00084812
     atom    7 type  1   force =    -0.00095520    0.00372422    0.00511947
     atom    8 type  1   force =    -0.00001058    0.01015281   -0.00046847
     atom    9 type  1   force =     0.00029000   -0.00338147   -0.00387380
     atom   10 type  1   force =     0.00479176    0.00171243   -0.00369683
     atom   11 type  1   force =     0.00028932   -0.00516519   -0.00280841
     atom   12 type  1   force =    -0.00916798   -0.00777144    0.00075470
     atom   13 type  1   force =    -0.00292639    0.00515248    0.00021718
     atom   14 type  1   force =     0.00006991    0.00362730   -0.00578465
     atom   15 type  1   force =    -0.00161028    0.00862560   -0.00886588
     atom   16 type  1   force =    -0.00112647   -0.00128343   -0.00024490
     atom   17 type  1   force =    -0.00200762   -0.00282905   -0.00210640
     atom   18 type  1   force =    -0.00414774   -0.00094583   -0.00723870
     atom   19 type  2   force =     0.00227092    0.00818310    0.01838162
     atom   20 type  2   force =    -0.01362007    0.00124713   -0.02964985
     atom   21 type  2   force =    -0.00139604   -0.00382782    0.00377552
     atom   22 type  2   force =    -0.00063628    0.01561064   -0.01235041
     atom   23 type  3   force =    -0.00212701   -0.00036381   -0.00008537

     Total force =    23.729862     Total SCF correction =     0.052933

     Computing stress (Cartesian axis) and pressure

     negative rho (up, down):  1.356E-01 1.325E-01
          total   stress  (Ry/bohr**3)                   (kbar)     P=       22.79
   0.00091345  -0.00015541  -0.00018327          134.37      -22.86      -26.96
  -0.00015541  -0.00014752   0.00003417          -22.86      -21.70        5.03
  -0.00018327   0.00003417  -0.00030116          -26.96        5.03      -44.30

     Entering Dynamics:    iteration =    15
                           time      =   0.0015 pico-seconds

ATOMIC_POSITIONS (angstrom)
Be            4.2221169901        2.0126566352        2.0004735561
Be            4.2233743992        2.0119675332        9.3067560024
Be            2.0010806582        5.8591286832        2.0003350429
Be            2.0003991154        5.8595225266        9.3068817516
Be            8.6657405735        2.0113308584        2.0003232467
Be            8.6650341374        2.0117784580        9.3068808501
Be            6.4427968381        5.8589485556        2.0004202926
Be            6.4440789868        5.8581956304        9.3068444497
Be            4.2231613518        2.0130175538        5.6535917332
Be            2.0013289180        5.8590007423        5.6535446378
Be            8.6647890563        2.0118827549        5.6536925776
Be            6.3677737758        8.0700513816        5.6443021759
Be            6.4431691630        4.5506163528        3.8268258779
Be            3.1335632170        5.2053880645        7.4797529073
Be            5.3107800303        5.2043798294        7.4803694877
Be            5.3552669432        2.6663695321        3.8268513950
Be            7.5326323670        2.6655482078        3.8274893252
Be            4.2229212992        3.3200986672        7.4803774024
W             4.2221246010        4.5768471184        2.4624147146
W             6.4438357836        3.2934437071        6.1172678727
W             6.4440191963        3.2940350796        8.8447995537
W             4.2220844286        4.5768227305        5.1913239668
H             6.8008417855       -5.7629665837        5.5694217959

     kinetic energy (Ekin) =        4639.28711285 Ry
     temperature           =    22196530.35052204 K
     Ekin + Etot (const)   =        3501.97268487 Ry
     Ions kinetic stress =        50718.43 (kbar)
                                    179.64       -5221.28         -43.15
                                  -5221.28      151960.89        1280.36
                                    -43.15        1280.36          14.76

     Linear momentum :    0.0000000000    0.0000000000    0.0000000000

     The maximum number of steps has been reached.

     End of molecular dynamics calculation

     diffusion coefficients :
     atom     1   D =       0.00000175 cm^2/s
     atom     2   D =       0.00000159 cm^2/s
     atom     3   D =       0.00000120 cm^2/s
     atom     4   D =       0.00000128 cm^2/s
     atom     5   D =       0.00000141 cm^2/s
     atom     6   D =       0.00000153 cm^2/s
     atom     7   D =       0.00000117 cm^2/s
     atom     8   D =       0.00000099 cm^2/s
     atom     9   D =       0.00000187 cm^2/s
     atom    10   D =       0.00000118 cm^2/s
     atom    11   D =       0.00000156 cm^2/s
     atom    12   D =       0.05403165 cm^2/s
     atom    13   D =       0.00000136 cm^2/s
     atom    14   D =       0.00000140 cm^2/s
     atom    15   D =       0.00000116 cm^2/s
     atom    16   D =       0.00000152 cm^2/s
     atom    17   D =       0.00000132 cm^2/s
     atom    18   D =       0.00000131 cm^2/s
     atom    19   D =       0.00000134 cm^2/s
     atom    20   D =       0.00000124 cm^2/s
     atom    21   D =       0.00000136 cm^2/s
     atom    22   D =       0.00000133 cm^2/s
     atom    23   D =       2.39223263 cm^2/s

     < D > =       0.10636057 cm^2/s

     Writing all to output data dir outdir/pwscf.save/

     General routines

     Parallel routines

   This run was terminated on:  20:17:47  14Jun2023

   JOB DONE.