     Program PWSCF v.7.2 starts on 16Jun2023 at 14:41:14

     Reading input from md_data/md_Hf5Nb2Ta10Zr5H_20steps_50eV_incident30_polar30.in
Warning: card &CELL ignored
Warning: card / ignored

     Current dimensions of program PWSCF are:
     Max number of different atomic species (ntypx) = 10
     Max number of k-points (npk) =  40000
     Max angular momentum in pseudopotentials (lmaxx) =  4

     File outdir/pwscf.md deleted, as requested

     gamma-point specific algorithms are used

     R & G space division:  proc/nbgrp/npool/nimage =      42
     Subspace diagonalization in iterative solution of the eigenvalue problem:
     one sub-group per band group will be used

     Using Slab Decomposition

     bravais-lattice index     =            0
     lattice parameter (alat)  =      17.6500  a.u.
     unit-cell volume          =    5552.8853 (a.u.)^3
     number of atoms/cell      =           23
     number of atomic types    =            5
     number of electrons       =       277.00
     number of Kohn-Sham states=          167
     kinetic-energy cutoff     =     120.0000  Ry
     charge density cutoff     =     480.0000  Ry
     scf convergence threshold =      1.0E-03
     mixing beta               =       0.7000
     number of iterations used =            8  TF        mixing
     energy convergence thresh.=      0.0E+00
     force convergence thresh. =      0.0E+00
     Exchange-correlation=  SLA  PW   PBX  PBC
                           (   1   4   3   4   0   0   0)
     nstep                     =           20

     celldm(1)=  17.650041  celldm(2)=   0.000000  celldm(3)=   0.000000
     celldm(4)=   0.000000  celldm(5)=   0.000000  celldm(6)=   0.000000

     crystal axes: (cart. coord. in units of alat)
               a(1) = (   1.000000   0.000000   0.000000 )
               a(2) = (   0.000000   0.929336   0.000000 )
               a(3) = (   0.000000   0.000000   1.086698 )

     reciprocal axes: (cart. coord. in units 2 pi/alat)
               b(1) = (  1.000000  0.000000  0.000000 )
               b(2) = (  0.000000  1.076037  0.000000 )
               b(3) = (  0.000000  0.000000  0.920219 )

     PseudoPot. # 1 for Hf read from file:
     q-e/pseudo/hf_pbe_v1.uspp.F.UPF
     MD5 check sum: 8ee9378dfe14276e333edf04c5e4aa26
     Pseudo is Ultrasoft + core correction, Zval = 12.0
     Generated by new atomic code, or converted to UPF format
     Using radial grid of  921 points,  8 beta functions with:
                l(1) =   0
                l(2) =   0
                l(3) =   0
                l(4) =   1
                l(5) =   1
                l(6) =   2
                l(7) =   2
                l(8) =   3
     Q(r) pseudized with  6 coefficients,  rinner =    1.200   1.200   1.200
                                                       1.200   1.200   1.200
                                                       1.200

     PseudoPot. # 2 for Nb read from file:
     q-e/pseudo/nb_pbe_v1.uspp.F.UPF
     MD5 check sum: 573aab8a2fa660278ed4a62cd769473f
     Pseudo is Ultrasoft + core correction, Zval = 13.0
     Generated by new atomic code, or converted to UPF format
     Using radial grid of  887 points,  6 beta functions with:
                l(1) =   0
                l(2) =   0
                l(3) =   1
                l(4) =   1
                l(5) =   2
                l(6) =   2
     Q(r) pseudized with  6 coefficients,  rinner =    1.000   1.000   1.000
                                                       1.000   1.000

     PseudoPot. # 3 for Ta read from file:
     q-e/pseudo/ta_pbe_v1.uspp.F.UPF
     MD5 check sum: f8bbe9446314a3b8ea5d9f3e3836c939
     Pseudo is Ultrasoft + core correction, Zval = 13.0
     Generated by new atomic code, or converted to UPF format
     Using radial grid of  921 points,  7 beta functions with:
                l(1) =   0
                l(2) =   0
                l(3) =   1
                l(4) =   1
                l(5) =   2
                l(6) =   2
                l(7) =   3
     Q(r) pseudized with  6 coefficients,  rinner =    1.300   1.300   1.300
                                                       1.300   1.300   1.300
                                                       1.300

     PseudoPot. # 4 for Zr read from file:
     q-e/pseudo/zr_pbe_v1.uspp.F.UPF
     MD5 check sum: 5db81b1e868ab7776c4564c113de050b
     Pseudo is Ultrasoft + core correction, Zval = 12.0
     Generated by new atomic code, or converted to UPF format
     Using radial grid of  887 points,  6 beta functions with:
                l(1) =   0
                l(2) =   0
                l(3) =   1
                l(4) =   1
                l(5) =   2
                l(6) =   2
     Q(r) pseudized with  6 coefficients,  rinner =    1.200   1.200   1.200
                                                       1.200   1.200

     PseudoPot. # 5 for H  read from file:
     q-e/pseudo/h_pbe_v1.4.uspp.F.UPF
     MD5 check sum: 761ae9a214b05c3daf00ab9f6b793d6f
     Pseudo is Ultrasoft, Zval =  1.0
     Generated by new atomic code, or converted to UPF format
     Using radial grid of  615 points,  2 beta functions with:
                l(1) =   0
                l(2) =   0
     Q(r) pseudized with  8 coefficients,  rinner =    0.700

     atomic species   valence    mass     pseudopotential
        Hf            12.00   178.49000     Hf( 1.00)
        Nb            13.00    92.90637     Nb( 1.00)
        Ta            13.00   180.94788     Ta( 1.00)
        Zr            12.00    91.22400     Zr( 1.00)
        H              1.00     2.01400     H ( 1.00)

     Starting magnetic structure
     atomic species   magnetization
        Hf           0.000
        Nb           0.000
        Ta           0.000
        Zr           0.000
        H            0.000

     No symmetry found

   Cartesian axes

     site n.     atom                  positions (alat units)
         1           Hf  tau(   1) = (   0.2858672   0.3026898   0.7070626  )
         2           Hf  tau(   2) = (   0.1341532   0.1377178   0.5415917  )
         3           Hf  tau(   3) = (   0.1344204   0.7911996   0.5447610  )
         4           Hf  tau(   4) = (   0.4375813   0.1377178   0.5415917  )
         5           Hf  tau(   5) = (   0.4373140   0.7911996   0.5447610  )
         6           Nb  tau(   6) = (   0.2858672   0.2994572   0.3764008  )
         7           Nb  tau(   7) = (   0.2858672   0.6291626   0.7103852  )
         8           Ta  tau(   8) = (   0.1294832   0.4647675   0.5429471  )
         9           Ta  tau(   9) = (   0.4422513   0.4647675   0.5429471  )
        10           Ta  tau(  10) = (   0.1399628   0.1406984   0.2204260  )
        11           Ta  tau(  11) = (   0.1394848   0.1400847   0.8666573  )
        12           Ta  tau(  12) = (   0.1396156   0.7897030   0.2190832  )
        13           Ta  tau(  13) = (   0.1400119   0.7885528   0.8657390  )
        14           Ta  tau(  14) = (   0.4317717   0.1406984   0.2204260  )
        15           Ta  tau(  15) = (   0.4322496   0.1400847   0.8666573  )
        16           Ta  tau(  16) = (   0.4321189   0.7897030   0.2190832  )
        17           Ta  tau(  17) = (   0.4317226   0.7885528   0.8657390  )
        18           Zr  tau(  18) = (   0.2858672   0.6280820   0.3776642  )
        19           Zr  tau(  19) = (   0.1331729   0.4627493   0.2141328  )
        20           Zr  tau(  20) = (   0.1328036   0.4661802   0.8725649  )
        21           Zr  tau(  21) = (   0.4385616   0.4627493   0.2141328  )
        22           Zr  tau(  22) = (   0.4389309   0.4661802   0.8725649  )
        23           H   tau(  23) = (   0.6276957   0.5573903   0.5965931  )

     number of k points=     1  Gaussian smearing, width (Ry)=  0.0220
                       cart. coord. in units 2pi/alat
        k(    1) = (   0.0000000   0.0000000   0.0000000), wk =   1.0000000

     Check: negative core charge=   -0.000002
     Generating pointlists ...
     new r_m :   0.1117 (alat units)  1.9717 (a.u.) for type    1
     new r_m :   0.1098 (alat units)  1.9374 (a.u.) for type    2
     new r_m :   0.0883 (alat units)  1.5589 (a.u.) for type    3
     new r_m :   0.1112 (alat units)  1.9625 (a.u.) for type    4
     new r_m :   0.0883 (alat units)  1.5589 (a.u.) for type    5

     Initial potential from superposition of free atoms

     starting charge     266.9726, renormalised to     277.0000

     negative rho (up, down):  9.217E-01 9.217E-01
     Starting wfcs are  287 randomized atomic wfcs

     Self-consistent Calculation

     iteration #  1     ecut=   120.00 Ry     beta= 0.70
     Davidson diagonalization with overlap
     ethr =  1.00E-02,  avg # of iterations =  2.0

     negative rho (up, down):  9.956E-01 9.953E-01

     total energy              =   -2930.55206247 Ry
     estimated scf accuracy    <     277.08287383 Ry

     total magnetization       =    -0.00 Bohr mag/cell
     absolute magnetization    =     0.09 Bohr mag/cell

[...]

     iteration # 10     ecut=   120.00 Ry     beta= 0.70
     Davidson diagonalization with overlap
     c_bands:  1 eigenvalues not converged
     ethr =  2.20E-05,  avg # of iterations = 18.0

[...]

     Magnetic moment per site  (integrated on atomic sphere of radius R)
     atom   1 (R=0.112)  charge=  9.4619  magn=  0.0002
     atom   2 (R=0.112)  charge=  9.0595  magn=  0.0003
     atom   3 (R=0.112)  charge=  9.0583  magn=  0.0002
     atom   4 (R=0.112)  charge=  9.0578  magn= -0.0002
     atom   5 (R=0.112)  charge=  9.0501  magn=  0.0005
     atom   6 (R=0.110)  charge= 10.3491  magn=  0.0005
     atom   7 (R=0.110)  charge= 10.3487  magn= -0.0000
     atom   8 (R=0.088)  charge=  8.1255  magn= -0.0001
     atom   9 (R=0.088)  charge=  8.1159  magn=  0.0003
     atom  10 (R=0.088)  charge=  8.1059  magn=  0.0006
     atom  11 (R=0.088)  charge=  8.1033  magn=  0.0008
     atom  12 (R=0.088)  charge=  8.1063  magn=  0.0010
     atom  13 (R=0.088)  charge=  8.1037  magn=  0.0007
     atom  14 (R=0.088)  charge=  8.1055  magn=  0.0011
     atom  15 (R=0.088)  charge=  8.1023  magn=  0.0006
     atom  16 (R=0.088)  charge=  8.1058  magn=  0.0001
     atom  17 (R=0.088)  charge=  8.1084  magn=  0.0017
     atom  18 (R=0.111)  charge=  9.4532  magn=  0.0003
     atom  19 (R=0.111)  charge=  9.0000  magn=  0.0004
     atom  20 (R=0.111)  charge=  8.9968  magn=  0.0002
     atom  21 (R=0.111)  charge=  8.9994  magn=  0.0003
     atom  22 (R=0.111)  charge=  8.9961  magn=  0.0004
     atom  23 (R=0.088)  charge=  0.9730  magn=  0.0000

     End of self-consistent calculation

 ------ SPIN UP ------------

          k = 0.0000 0.0000 0.0000 ( 61588 PWs)   bands (ev):

   -60.7969 -60.7877 -60.7524 -60.7427 -60.7176 -60.7115 -60.6733 -60.6682
   -60.5299 -60.4052 -54.4014 -54.3530 -54.2738 -54.2267 -52.7107 -46.2809
   -46.2730 -41.6637 -41.6530 -41.5682 -41.5517 -39.8135 -27.7971 -27.7910
   -27.7128 -27.7032 -27.6101 -27.6039 -27.4841 -27.4737 -27.3817 -27.3473
   -27.3121 -27.2850 -27.2710 -27.2522 -27.2399 -27.1858 -27.1788 -27.1568
   -27.1020 -27.0773 -27.0171 -26.9754 -26.9686 -26.9618 -26.9529 -26.9064
[...]
     absolute magnetization    =     0.00 Bohr mag/cell

     convergence has been achieved in   5 iterations

     negative rho (up, down):  9.090E-01 9.090E-01

     Forces acting on atoms (cartesian axes, Ry/au):

     atom    1 type  1   force =    -0.00781223   -0.02807437    0.01856499
     atom    2 type  1   force =    -0.11680254   -0.01719504    0.00280755
     atom    3 type  1   force =    -0.11779463    0.01267495    0.00757049
     atom    4 type  1   force =     0.11644566   -0.01479494   -0.00019849
     atom    5 type  1   force =     0.12999131   -0.00441288    0.01122735
     atom    6 type  2   force =    -0.01708534   -0.02384670   -0.00269464
     atom    7 type  2   force =    -0.01784012    0.01141053   -0.00903002
     atom    8 type  3   force =    -0.12459689    0.00676765    0.00063999
     atom    9 type  3   force =     0.03851826   -0.05891431   -0.04352808
     atom   10 type  3   force =    -0.01882813   -0.02757715   -0.05967211
     atom   11 type  3   force =    -0.02148067   -0.03418870    0.05386329
     atom   12 type  3   force =    -0.01950187    0.03429719   -0.05686076
     atom   13 type  3   force =    -0.01783716    0.03072083    0.05948169
     atom   14 type  3   force =     0.02155853   -0.02888697   -0.06078394
     atom   15 type  3   force =     0.01937220   -0.03766322    0.05470909
     atom   16 type  3   force =     0.01956764    0.03585820   -0.05483976
     atom   17 type  3   force =     0.01487791    0.03717398    0.05932222
     atom   18 type  4   force =    -0.00355394    0.02664601   -0.01165196
     atom   19 type  4   force =    -0.12684462   -0.00402038   -0.11524947
     atom   20 type  4   force =    -0.13178970    0.00488753    0.11212075
     atom   21 type  4   force =     0.12266781   -0.00767052   -0.11698258
     atom   22 type  4   force =     0.13403367    0.00481354    0.11182885
     atom   23 type  5   force =     0.12473484    0.08199478    0.03935553
     The non-local contrib.  to forces
     atom    1 type  1   force =     0.00057256   -0.00898636    0.02916996
     atom    2 type  1   force =    -0.24586184   -0.16273052    0.01868115
     atom    3 type  1   force =    -0.24003663    0.15504151   -0.02188438
     atom    4 type  1   force =     0.24853650   -0.16769598    0.02317817
     atom    5 type  1   force =     0.25906043    0.13982833   -0.01577020
     atom    6 type  2   force =     0.01069096   -0.05548812   -0.06780583
     atom    7 type  2   force =    -0.01845627    0.06287225    0.06058215
     atom    8 type  3   force =    -0.25708233    0.00064008   -0.00094204
     atom    9 type  3   force =     0.02219206   -0.10790593   -0.05696737
     atom   10 type  3   force =    -0.21204023    0.00136233   -0.21332574
     atom   11 type  3   force =    -0.21497245    0.00606562    0.19696962
     atom   12 type  3   force =    -0.20487109   -0.02128082   -0.17810541
     atom   13 type  3   force =    -0.20760224   -0.00545747    0.20444780
     atom   14 type  3   force =     0.20307911    0.00284160   -0.21959553
     atom   15 type  3   force =     0.21183633    0.00144558    0.19584799
     atom   16 type  3   force =     0.20353117   -0.02228145   -0.18129524
     atom   17 type  3   force =     0.22333049   -0.00914597    0.19985376
     atom   18 type  4   force =    -0.01293765    0.05664647   -0.05989774
     atom   19 type  4   force =     0.06512464    0.00982197    0.07193595
     atom   20 type  4   force =     0.05790232   -0.01692946   -0.06536636
     atom   21 type  4   force =    -0.06038886    0.01107629    0.07269738
     atom   22 type  4   force =    -0.05710569   -0.01060161   -0.06462077
     atom   23 type  5   force =    -0.06945478   -0.03370582   -0.02184761
     The ionic contribution  to forces
     atom    1 type  1   force =    -0.29269705   -4.80355701   14.24462116
     atom    2 type  1   force =   -39.70861012   -6.17269326    0.76592014
     atom    3 type  1   force =   -39.68111847    6.19489520   -0.73459938
     atom    4 type  1   force =    39.54861678   -6.32827791    0.75158741
     atom    5 type  1   force =    39.25118421    6.63777854   -0.81780972
     atom    6 type  2   force =    -0.30650190   -3.78808169  -14.20331143
     atom    7 type  2   force =    -0.44717376    3.73555233   14.17366655
     atom    8 type  3   force =   -52.32744171    0.04680024   -0.08673169
     atom    9 type  3   force =    49.64320989   -0.96041816   -0.70384398
     atom   10 type  3   force =   -36.05110380   -2.09611636  -23.07384532
     atom   11 type  3   force =   -35.12676772   -0.84980714   22.08747163
     atom   12 type  3   force =   -35.23759070    0.81734028  -22.13765583
     atom   13 type  3   force =   -36.03002816    2.21205406   23.08181185
     atom   14 type  3   force =    35.96622140   -2.13121731  -23.13699851
     atom   15 type  3   force =    35.01894357   -0.89164817   22.16156490
     atom   16 type  3   force =    35.11958675    0.88310011  -22.23908807
     atom   17 type  3   force =    35.83965874    2.34138151   23.24441633
     atom   18 type  4   force =    -0.31194476    4.51156511  -14.12926664
     atom   19 type  4   force =   -35.88699727    0.94102119  -25.52644413
     atom   20 type  4   force =   -35.86896821   -0.97312556   25.52031861
     atom   21 type  4   force =    35.73820975    0.91544988  -25.74263668
     atom   22 type  4   force =    35.58333663   -1.05913173   25.85750117
     atom   23 type  5   force =     5.56797591    0.81713586    0.64335165
     The local contribution  to forces
     atom    1 type  1   force =     0.28364114    4.77664338  -14.24604124
     atom    2 type  1   force =    39.84876003    6.31749551   -0.76845240
     atom    3 type  1   force =    39.81529082   -6.33878392    0.77931646
     atom    4 type  1   force =   -39.69132372    6.48033035   -0.76344244
     atom    5 type  1   force =   -39.38778128   -6.78674549    0.85929031
     atom    6 type  2   force =     0.28006096    3.81714968   14.26968662
     atom    7 type  2   force =     0.44830569   -3.77551025  -14.23268163
     atom    8 type  3   force =    52.48779479   -0.04036232    0.10043537
     atom    9 type  3   force =   -49.62552194    1.02485599    0.73632384
     atom   10 type  3   force =    36.26699175    2.06132061   23.24260659
     atom   11 type  3   force =    35.34249674    0.79607092  -22.25495291
     atom   12 type  3   force =    35.44693974   -0.75545009   22.27279475
     atom   13 type  3   force =    36.24152533   -2.16350263  -23.24946016
     atom   14 type  3   force =   -36.16820794    2.09272453   23.30986103
     atom   15 type  3   force =   -35.22973471    0.83783036  -22.32350442
     atom   16 type  3   force =   -35.32455521   -0.81786263   22.37864629
     atom   17 type  3   force =   -36.06670044   -2.28204404  -23.40539875
     atom   18 type  4   force =     0.32213392   -4.53862893   14.17912275
     atom   19 type  4   force =    35.70981570   -0.95454366   25.34600108
     atom   20 type  4   force =    35.68433464    0.99514903  -25.35455467
     atom   21 type  4   force =   -35.56727848   -0.93330593   25.55797125
     atom   22 type  4   force =   -35.39461080    1.07504785  -25.69094819
     atom   23 type  5   force =    -5.37213692   -0.70080292   -0.57999668
     The core correction contribution to forces
     atom    1 type  1   force =     0.00107030    0.00126440   -0.00198609
     atom    2 type  1   force =    -0.01161531   -0.00164521    0.00039173
     atom    3 type  1   force =    -0.01236234    0.00291104   -0.00153126
     atom    4 type  1   force =     0.01205721   -0.00257993    0.00228909
     atom    5 type  1   force =     0.01085907    0.00514476   -0.00116345
     atom    6 type  2   force =    -0.00045982    0.00275948    0.00300926
     atom    7 type  2   force =     0.00070422   -0.00306407   -0.00231254
     atom    8 type  3   force =    -0.03121598    0.00069662   -0.00039096
     atom    9 type  3   force =     0.00544120   -0.01306065   -0.00729318
     atom   10 type  3   force =    -0.02164647    0.00913655   -0.01690013
     atom   11 type  3   force =    -0.02427177    0.00911640    0.01825402
     atom   12 type  3   force =    -0.02240567   -0.01002571   -0.01537591
     atom   13 type  3   force =    -0.02304379   -0.00932381    0.01633359
     atom   14 type  3   force =     0.02202019    0.00985661   -0.01640478
     atom   15 type  3   force =     0.02327721    0.01012335    0.01544142
     atom   16 type  3   force =     0.02286594   -0.01157572   -0.01486771
     atom   17 type  3   force =     0.02292960   -0.00949104    0.01526291
     atom   18 type  4   force =     0.00068058   -0.00290217    0.00292182
     atom   19 type  4   force =    -0.00994047    0.00001621   -0.00952784
     atom   20 type  4   force =    -0.00976647    0.00056332    0.00918654
     atom   21 type  4   force =     0.00976757    0.00000184   -0.00960930
     atom   22 type  4   force =     0.01010297    0.00041899    0.00877707
     atom   23 type  5   force =     0.00000000    0.00000000    0.00000000
     The Hubbard contrib.    to forces
     atom    1 type  1   force =     0.00000000    0.00000000    0.00000000
     atom    2 type  1   force =     0.00000000    0.00000000    0.00000000
     atom    3 type  1   force =     0.00000000    0.00000000    0.00000000
     atom    4 type  1   force =     0.00000000    0.00000000    0.00000000
     atom    5 type  1   force =     0.00000000    0.00000000    0.00000000
     atom    6 type  2   force =     0.00000000    0.00000000    0.00000000
     atom    7 type  2   force =     0.00000000    0.00000000    0.00000000
     atom    8 type  3   force =     0.00000000    0.00000000    0.00000000
     atom    9 type  3   force =     0.00000000    0.00000000    0.00000000
     atom   10 type  3   force =     0.00000000    0.00000000    0.00000000
     atom   11 type  3   force =     0.00000000    0.00000000    0.00000000
     atom   12 type  3   force =     0.00000000    0.00000000    0.00000000
     atom   13 type  3   force =     0.00000000    0.00000000    0.00000000
     atom   14 type  3   force =     0.00000000    0.00000000    0.00000000
     atom   15 type  3   force =     0.00000000    0.00000000    0.00000000
     atom   16 type  3   force =     0.00000000    0.00000000    0.00000000
     atom   17 type  3   force =     0.00000000    0.00000000    0.00000000
     atom   18 type  4   force =     0.00000000    0.00000000    0.00000000
     atom   19 type  4   force =     0.00000000    0.00000000    0.00000000
     atom   20 type  4   force =     0.00000000    0.00000000    0.00000000
     atom   21 type  4   force =     0.00000000    0.00000000    0.00000000
     atom   22 type  4   force =     0.00000000    0.00000000    0.00000000
     atom   23 type  5   force =     0.00000000    0.00000000    0.00000000
     The SCF correction term to forces
     atom    1 type  1   force =    -0.00013635    0.00648209   -0.00646855
     atom    2 type  1   force =     0.00078753    0.00229931   -0.01300282
     atom    3 type  1   force =     0.00069481   -0.00146800   -0.01300071
     atom    4 type  1   force =    -0.00117828    0.00334940   -0.01308048
     atom    5 type  1   force =    -0.00306829   -0.00049814   -0.01258935
     atom    6 type  2   force =    -0.00061271   -0.00026518   -0.00354302
     atom    7 type  2   force =    -0.00095717   -0.00851886   -0.00755431
     atom    8 type  3   force =     0.00361116   -0.00108609   -0.01100045
     atom    9 type  3   force =    -0.00654012   -0.00246469   -0.01101715
     atom   10 type  3   force =    -0.00076656   -0.00335940    0.00252273
     atom   11 type  3   force =     0.00229735    0.00428638    0.00685117
     atom   12 type  3   force =    -0.00131133    0.00363440    0.00221189
     atom   13 type  3   force =     0.00157452   -0.00312845    0.00707885
     atom   14 type  3   force =    -0.00129142   -0.00317152    0.00308410
     atom   15 type  3   force =    -0.00468737    0.00450653    0.00608945
     atom   16 type  3   force =    -0.00159818    0.00439876    0.00249522
     atom   17 type  3   force =    -0.00407767   -0.00360561    0.00591821
     atom   18 type  4   force =    -0.00122320   -0.00011359   -0.00380191
     atom   19 type  4   force =    -0.00458439   -0.00041521    0.00351571
     atom   20 type  4   force =     0.00497085   -0.00084893    0.00326688
     atom   21 type  4   force =     0.00262066   -0.00097172    0.00532501
     atom   22 type  4   force =    -0.00742661   -0.00099908    0.00184981
     atom   23 type  5   force =    -0.00138654   -0.00071146   -0.00142158

     Total force =     0.515340     Total SCF correction =     0.042209

     Computing stress (Cartesian axis) and pressure

     negative rho (up, down):  9.090E-01 9.090E-01
          total   stress  (Ry/bohr**3)                   (kbar)     P=       87.91
   0.00073357   0.00003818   0.00001647          107.91        5.62        2.42
   0.00003818   0.00067122   0.00000119            5.62       98.74        0.17
   0.00001647   0.00000119   0.00038798            2.42        0.17       57.07

     Entering Dynamics:    iteration =    20
                           time      =   0.0041 pico-seconds

ATOMIC_POSITIONS (angstrom)
Hf            2.6715632563        2.8276362301        6.6045725897
Hf            1.2531767227        1.2868728381        5.0589029808
Hf            1.2556637423        7.3907045857        5.0885592378
Hf            4.0899180070        1.2868925736        5.0588774790
Hf            4.0875054665        7.3905961417        5.0885882576
Nb            2.6715542440        2.7973576481        3.5162005772
Nb            2.6713727397        5.8774000968        6.6351657907
Ta            1.2095132388        4.3418123648        5.0716098694
Ta            4.1081463314        4.3283891182        5.0637230655
Ta            1.3085443858        1.3145548215        2.0585547478
Ta            1.3040899767        1.3087563392        8.0956548078
Ta            1.3053235569        7.3769917827        2.0460433004
Ta            1.3090328680        7.3661953176        8.0871334597
Ta            4.0345100965        1.3145805498        2.0585653546
Ta            4.0389584784        1.3087588662        8.0956573672
Ta            4.0377518635        7.3769964242        2.0460738404
Ta            4.0340007307        7.3662306622        8.0871163277
Zr            2.6715972349        5.8676575142        3.5276834308
Zr            1.2424211788        4.3227474597        1.9978368668
Zr            1.2389125623        4.3549891018        8.1527610716
Zr            4.1005654274        4.3226790547        1.9978590235
Zr            4.1041379215        4.3549767585        8.1527593418
H             5.5980981806        5.1284284468        5.5242310457

     kinetic energy (Ekin) =           4.01873529 Ry
     temperature           =       19227.51872759 K
     Ekin + Etot (const)   =       -2939.01726951 Ry
     Ions kinetic stress =           70.98 (kbar)
                                    151.57          83.48          47.91
                                     83.48          46.06          26.43
                                     47.91          26.43          15.30

     Linear momentum :    0.0000000000    0.0000000000   -0.0000000000

     The maximum number of steps has been reached.

     End of molecular dynamics calculation

     diffusion coefficients :
     atom     1   D =       0.00000001 cm^2/s
     atom     2   D =       0.00000000 cm^2/s
     atom     3   D =       0.00000000 cm^2/s
     atom     4   D =       0.00000004 cm^2/s
     atom     5   D =       0.00000004 cm^2/s
     atom     6   D =       0.00000001 cm^2/s
     atom     7   D =       0.00000001 cm^2/s
     atom     8   D =       0.00000000 cm^2/s
     atom     9   D =       0.00000294 cm^2/s
     atom    10   D =       0.00000001 cm^2/s
     atom    11   D =       0.00000001 cm^2/s
     atom    12   D =       0.00000001 cm^2/s
     atom    13   D =       0.00000002 cm^2/s
     atom    14   D =       0.00000001 cm^2/s
     atom    15   D =       0.00000002 cm^2/s
     atom    16   D =       0.00000002 cm^2/s
     atom    17   D =       0.00000002 cm^2/s
     atom    18   D =       0.00000002 cm^2/s
     atom    19   D =       0.00000003 cm^2/s
     atom    20   D =       0.00000005 cm^2/s
     atom    21   D =       0.00000010 cm^2/s
     atom    22   D =       0.00000012 cm^2/s
     atom    23   D =       0.00032123 cm^2/s

     < D > =       0.00001412 cm^2/s

     Writing all to output data dir outdir/pwscf.save/

     General routines

     Parallel routines

   This run was terminated on:  15:41:49  16Jun2023

   JOB DONE.