     Program PWSCF v.7.2 starts on 13Jun2023 at 21:17: 0

     Reading input from md_data/md_Hf5Nb2Ta10Zr5H_20steps_100eV_incident30_polar90.in
Warning: card &CELL ignored
Warning: card / ignored

     Current dimensions of program PWSCF are:
     Max number of different atomic species (ntypx) = 10
     Max number of k-points (npk) =  40000
     Max angular momentum in pseudopotentials (lmaxx) =  4

     File outdir/pwscf.md deleted, as requested

     gamma-point specific algorithms are used

     R & G space division:  proc/nbgrp/npool/nimage =      42
     Subspace diagonalization in iterative solution of the eigenvalue problem:
     one sub-group per band group will be used

     Using Slab Decomposition

     bravais-lattice index     =            0
     lattice parameter (alat)  =      17.6500  a.u.
     unit-cell volume          =    5552.8853 (a.u.)^3
     number of atoms/cell      =           23
     number of atomic types    =            5
     number of electrons       =       277.00
     number of Kohn-Sham states=          167
     kinetic-energy cutoff     =     120.0000  Ry
     charge density cutoff     =     480.0000  Ry
     scf convergence threshold =      1.0E-03
     mixing beta               =       0.7000
     number of iterations used =            8  TF        mixing
     energy convergence thresh.=      0.0E+00
     force convergence thresh. =      0.0E+00
     Exchange-correlation=  SLA  PW   PBX  PBC
                           (   1   4   3   4   0   0   0)
     nstep                     =           20

     celldm(1)=  17.650041  celldm(2)=   0.000000  celldm(3)=   0.000000
     celldm(4)=   0.000000  celldm(5)=   0.000000  celldm(6)=   0.000000

     crystal axes: (cart. coord. in units of alat)
               a(1) = (   1.000000   0.000000   0.000000 )
               a(2) = (   0.000000   0.929336   0.000000 )
               a(3) = (   0.000000   0.000000   1.086698 )

     reciprocal axes: (cart. coord. in units 2 pi/alat)
               b(1) = (  1.000000  0.000000  0.000000 )
               b(2) = (  0.000000  1.076037  0.000000 )
               b(3) = (  0.000000  0.000000  0.920219 )

     PseudoPot. # 1 for Hf read from file:
     q-e/pseudo/hf_pbe_v1.uspp.F.UPF
     MD5 check sum: 8ee9378dfe14276e333edf04c5e4aa26
     Pseudo is Ultrasoft + core correction, Zval = 12.0
     Generated by new atomic code, or converted to UPF format
     Using radial grid of  921 points,  8 beta functions with:
                l(1) =   0
                l(2) =   0
                l(3) =   0
                l(4) =   1
                l(5) =   1
                l(6) =   2
                l(7) =   2
                l(8) =   3
     Q(r) pseudized with  6 coefficients,  rinner =    1.200   1.200   1.200
                                                       1.200   1.200   1.200
                                                       1.200

     PseudoPot. # 2 for Nb read from file:
     q-e/pseudo/nb_pbe_v1.uspp.F.UPF
     MD5 check sum: 573aab8a2fa660278ed4a62cd769473f
     Pseudo is Ultrasoft + core correction, Zval = 13.0
     Generated by new atomic code, or converted to UPF format
     Using radial grid of  887 points,  6 beta functions with:
                l(1) =   0
                l(2) =   0
                l(3) =   1
                l(4) =   1
                l(5) =   2
                l(6) =   2
     Q(r) pseudized with  6 coefficients,  rinner =    1.000   1.000   1.000
                                                       1.000   1.000

     PseudoPot. # 3 for Ta read from file:
     q-e/pseudo/ta_pbe_v1.uspp.F.UPF
     MD5 check sum: f8bbe9446314a3b8ea5d9f3e3836c939
     Pseudo is Ultrasoft + core correction, Zval = 13.0
     Generated by new atomic code, or converted to UPF format
     Using radial grid of  921 points,  7 beta functions with:
                l(1) =   0
                l(2) =   0
                l(3) =   1
                l(4) =   1
                l(5) =   2
                l(6) =   2
                l(7) =   3
     Q(r) pseudized with  6 coefficients,  rinner =    1.300   1.300   1.300
                                                       1.300   1.300   1.300
                                                       1.300

     PseudoPot. # 4 for Zr read from file:
     q-e/pseudo/zr_pbe_v1.uspp.F.UPF
     MD5 check sum: 5db81b1e868ab7776c4564c113de050b
     Pseudo is Ultrasoft + core correction, Zval = 12.0
     Generated by new atomic code, or converted to UPF format
     Using radial grid of  887 points,  6 beta functions with:
                l(1) =   0
                l(2) =   0
                l(3) =   1
                l(4) =   1
                l(5) =   2
                l(6) =   2
     Q(r) pseudized with  6 coefficients,  rinner =    1.200   1.200   1.200
                                                       1.200   1.200

     PseudoPot. # 5 for H  read from file:
     q-e/pseudo/h_pbe_v1.4.uspp.F.UPF
     MD5 check sum: 761ae9a214b05c3daf00ab9f6b793d6f
     Pseudo is Ultrasoft, Zval =  1.0
     Generated by new atomic code, or converted to UPF format
     Using radial grid of  615 points,  2 beta functions with:
                l(1) =   0
                l(2) =   0
     Q(r) pseudized with  8 coefficients,  rinner =    0.700

     atomic species   valence    mass     pseudopotential
        Hf            12.00   178.49000     Hf( 1.00)
        Nb            13.00    92.90637     Nb( 1.00)
        Ta            13.00   180.94788     Ta( 1.00)
        Zr            12.00    91.22400     Zr( 1.00)
        H              1.00     2.01400     H ( 1.00)

     Starting magnetic structure
     atomic species   magnetization
        Hf           0.000
        Nb           0.000
        Ta           0.000
        Zr           0.000
        H            0.000

     No symmetry found

   Cartesian axes

     site n.     atom                  positions (alat units)
         1           Hf  tau(   1) = (   0.2858672   0.3026898   0.7070626  )
         2           Hf  tau(   2) = (   0.1341532   0.1377178   0.5415917  )
         3           Hf  tau(   3) = (   0.1344204   0.7911996   0.5447610  )
         4           Hf  tau(   4) = (   0.4375813   0.1377178   0.5415917  )
         5           Hf  tau(   5) = (   0.4373140   0.7911996   0.5447610  )
         6           Nb  tau(   6) = (   0.2858672   0.2994572   0.3764008  )
         7           Nb  tau(   7) = (   0.2858672   0.6291626   0.7103852  )
         8           Ta  tau(   8) = (   0.1294832   0.4647675   0.5429471  )
         9           Ta  tau(   9) = (   0.4422513   0.4647675   0.5429471  )
        10           Ta  tau(  10) = (   0.1399628   0.1406984   0.2204260  )
        11           Ta  tau(  11) = (   0.1394848   0.1400847   0.8666573  )
        12           Ta  tau(  12) = (   0.1396156   0.7897030   0.2190832  )
        13           Ta  tau(  13) = (   0.1400119   0.7885528   0.8657390  )
        14           Ta  tau(  14) = (   0.4317717   0.1406984   0.2204260  )
        15           Ta  tau(  15) = (   0.4322496   0.1400847   0.8666573  )
        16           Ta  tau(  16) = (   0.4321189   0.7897030   0.2190832  )
        17           Ta  tau(  17) = (   0.4317226   0.7885528   0.8657390  )
        18           Zr  tau(  18) = (   0.2858672   0.6280820   0.3776642  )
        19           Zr  tau(  19) = (   0.1331729   0.4627493   0.2141328  )
        20           Zr  tau(  20) = (   0.1328036   0.4661802   0.8725649  )
        21           Zr  tau(  21) = (   0.4385616   0.4627493   0.2141328  )
        22           Zr  tau(  22) = (   0.4389309   0.4661802   0.8725649  )
        23           H   tau(  23) = (   0.6276957   0.4646681   0.6501263  )

     number of k points=     1  Gaussian smearing, width (Ry)=  0.0220
                       cart. coord. in units 2pi/alat
        k(    1) = (   0.0000000   0.0000000   0.0000000), wk =   1.0000000

     Check: negative core charge=   -0.000002
     Generating pointlists ...
     new r_m :   0.1117 (alat units)  1.9717 (a.u.) for type    1
     new r_m :   0.1098 (alat units)  1.9374 (a.u.) for type    2
     new r_m :   0.0884 (alat units)  1.5594 (a.u.) for type    3
     new r_m :   0.1112 (alat units)  1.9625 (a.u.) for type    4
     new r_m :   0.0884 (alat units)  1.5594 (a.u.) for type    5

     Initial potential from superposition of free atoms

     starting charge     266.9726, renormalised to     277.0000

     negative rho (up, down):  9.217E-01 9.217E-01
     Starting wfcs are  287 randomized atomic wfcs

     Self-consistent Calculation

     iteration #  1     ecut=   120.00 Ry     beta= 0.70
     Davidson diagonalization with overlap
     ethr =  1.00E-02,  avg # of iterations =  2.0

     negative rho (up, down):  9.974E-01 9.971E-01

     total energy              =   -2930.56980442 Ry
     estimated scf accuracy    <     277.06023899 Ry

     total magnetization       =    -0.00 Bohr mag/cell
     absolute magnetization    =     0.09 Bohr mag/cell

[...]

     Magnetic moment per site  (integrated on atomic sphere of radius R)
     atom   1 (R=0.112)  charge=  9.4641  magn= -0.0001
     atom   2 (R=0.112)  charge=  9.0587  magn= -0.0003
     atom   3 (R=0.112)  charge=  9.0582  magn= -0.0002
     atom   4 (R=0.112)  charge=  9.0594  magn=  0.0002
     atom   5 (R=0.112)  charge=  9.0581  magn=  0.0001
     atom   6 (R=0.110)  charge= 10.3487  magn= -0.0000
     atom   7 (R=0.110)  charge= 10.3488  magn=  0.0000
     atom   8 (R=0.088)  charge=  8.1295  magn=  0.0002
     atom   9 (R=0.088)  charge=  8.1188  magn= -0.0002
     atom  10 (R=0.088)  charge=  8.1085  magn= -0.0000
     atom  11 (R=0.088)  charge=  8.1051  magn=  0.0001
     atom  12 (R=0.088)  charge=  8.1093  magn= -0.0001
     atom  13 (R=0.088)  charge=  8.1064  magn=  0.0002
     atom  14 (R=0.088)  charge=  8.1071  magn=  0.0001
     atom  15 (R=0.088)  charge=  8.1086  magn=  0.0005
     atom  16 (R=0.088)  charge=  8.1081  magn=  0.0012
     atom  17 (R=0.088)  charge=  8.1098  magn=  0.0009
     atom  18 (R=0.111)  charge=  9.4542  magn= -0.0002
     atom  19 (R=0.111)  charge=  8.9990  magn=  0.0012
     atom  20 (R=0.111)  charge=  8.9967  magn= -0.0015
     atom  21 (R=0.111)  charge=  8.9976  magn=  0.0022
     atom  22 (R=0.111)  charge=  8.9886  magn=  0.0000
     atom  23 (R=0.088)  charge=  0.9769  magn=  0.0000

     End of self-consistent calculation

 ------ SPIN UP ------------

          k = 0.0000 0.0000 0.0000 ( 61588 PWs)   bands (ev):

   -60.7870 -60.7854 -60.7412 -60.7393 -60.7093 -60.7053 -60.6648 -60.6598
   -60.4982 -60.4275 -54.4048 -54.3537 -54.2806 -54.2297 -52.7046 -46.2693
   -46.2613 -41.6721 -41.6291 -41.5677 -41.5286 -39.7980 -27.7904 -27.7847
   -27.7027 -27.6998 -27.6010 -27.5953 -27.4756 -27.4651 -27.3721 -27.3418
   -27.3036 -27.2745 -27.2680 -27.2456 -27.2336 -27.1775 -27.1710 -27.1396
   -27.0922 -27.0722 -27.0254 -26.9657 -26.9625 -26.9570 -26.9433 -26.9146
   -26.8969 -26.8884 -26.8632 -26.8621 -24.1879 -23.9781 -23.6730 -23.5903
   -23.3312 -23.1975 -23.1730 -23.0739 -22.9466 -22.8768 -22.8617 -22.6428
   -22.5102 -22.4594 -22.4052 -22.3602 -22.2905 -22.2423 -21.7662 -21.7084
[...]

     convergence has been achieved in   5 iterations

     negative rho (up, down):  9.086E-01 9.086E-01

     Forces acting on atoms (cartesian axes, Ry/au):

     atom    1 type  1   force =    -0.01097071   -0.02386019    0.00958737
     atom    2 type  1   force =    -0.11522498   -0.01626875   -0.00676393
     atom    3 type  1   force =    -0.11322556    0.01424306   -0.00196454
     atom    4 type  1   force =     0.11484977   -0.02037275   -0.00929921
     atom    5 type  1   force =     0.11477315    0.01841136   -0.00303216
     atom    6 type  2   force =    -0.01191079   -0.02173109    0.00235778
     atom    7 type  2   force =    -0.01388449    0.01339256   -0.00552107
     atom    8 type  3   force =    -0.11549835    0.00264566   -0.00477945
     atom    9 type  3   force =     0.18334356    0.00114913    0.03750845
     atom   10 type  3   force =    -0.02177558   -0.03272852   -0.05986613
     atom   11 type  3   force =    -0.01758694   -0.03431794    0.06091584
     atom   12 type  3   force =    -0.01723002    0.03763298   -0.05416073
     atom   13 type  3   force =    -0.01723957    0.02803128    0.06451168
     atom   14 type  3   force =     0.02417505   -0.03111989   -0.05690045
     atom   15 type  3   force =     0.01544394   -0.03891329    0.05805397
     atom   16 type  3   force =     0.01937834    0.03556381   -0.05178897
     atom   17 type  3   force =     0.01488795    0.03272294    0.06114634
     atom   18 type  4   force =    -0.01373359    0.03238981   -0.02272029
     atom   19 type  4   force =    -0.12506714   -0.00488679   -0.11704381
     atom   20 type  4   force =    -0.13294226    0.00490445    0.11530308
     atom   21 type  4   force =     0.12307900   -0.00497070   -0.11847711
     atom   22 type  4   force =     0.17357884    0.00774032    0.10035671
     atom   23 type  5   force =    -0.05721962    0.00034255    0.00257664
     The non-local contrib.  to forces
     atom    1 type  1   force =    -0.00317051   -0.01150435    0.02608214
     atom    2 type  1   force =    -0.24583704   -0.16344045    0.01222527
     atom    3 type  1   force =    -0.23979782    0.16009948   -0.03164879
     atom    4 type  1   force =     0.26445004   -0.15926975    0.02903178
     atom    5 type  1   force =     0.25411769    0.15681609   -0.01626009
     atom    6 type  2   force =     0.00473626   -0.04792782   -0.05566273
     atom    7 type  2   force =    -0.01509670    0.05749243    0.05379050
     atom    8 type  3   force =    -0.28363611    0.00023648    0.00363751
     atom    9 type  3   force =     0.20804869   -0.00021695   -0.00349845
     atom   10 type  3   force =    -0.21149747    0.00453673   -0.20489042
     atom   11 type  3   force =    -0.21767484    0.00530899    0.19921541
     atom   12 type  3   force =    -0.20156088   -0.01875683   -0.17705915
     atom   13 type  3   force =    -0.20711350   -0.00274925    0.21313392
     atom   14 type  3   force =     0.20209685    0.00296149   -0.21827224
     atom   15 type  3   force =     0.23672226    0.01239467    0.17911814
     atom   16 type  3   force =     0.19123653   -0.01879018   -0.18904106
     atom   17 type  3   force =     0.22580998   -0.00904205    0.19159929
     atom   18 type  4   force =     0.00441350    0.05710970   -0.05683226
     atom   19 type  4   force =     0.06083821    0.00962330    0.06996633
     atom   20 type  4   force =     0.05219782   -0.01468252   -0.05623357
     atom   21 type  4   force =    -0.05580707    0.00991260    0.07520853
     atom   22 type  4   force =    -0.05905537   -0.01121731   -0.10118013
     atom   23 type  5   force =    -0.02067652    0.00018057   -0.00191444
     The ionic contribution  to forces
     atom    1 type  1   force =    -0.13870373   -4.73077768   14.15907764
     atom    2 type  1   force =   -39.64590046   -6.21159295    0.74295665
     atom    3 type  1   force =   -39.61949345    6.19930461   -0.74898628
     atom    4 type  1   force =    39.55438302   -6.29158088    0.71592209
     atom    5 type  1   force =    39.52988601    6.27796238   -0.77343517
     atom    6 type  2   force =    -0.24431203   -3.88648436  -14.21518008
     atom    7 type  2   force =    -0.14718152    3.73414715   14.09626873
     atom    8 type  3   force =   -52.30139225    0.07128468   -0.09361655
     atom    9 type  3   force =    51.06214239    0.10133050   -0.34967606
     atom   10 type  3   force =   -36.02928974   -2.11603061  -23.05534765
     atom   11 type  3   force =   -35.06472672   -0.88307921   22.08243204
     atom   12 type  3   force =   -35.21657574    0.81939869  -22.11014842
     atom   13 type  3   force =   -35.96311032    2.21620768   23.06017856
     atom   14 type  3   force =    35.98646811   -2.14669296  -23.07820154
     atom   15 type  3   force =    34.94191037   -0.96313743   22.13115163
     atom   16 type  3   force =    35.17432349    0.84937184  -22.13240664
     atom   17 type  3   force =    35.84175235    2.29355246   23.10664450
     atom   18 type  4   force =    -0.23346026    4.67356605  -14.15936991
     atom   19 type  4   force =   -35.88103253    0.95406955  -25.52472465
     atom   20 type  4   force =   -35.75094281   -0.95029172   25.52392939
     atom   21 type  4   force =    35.83148223    0.95304927  -25.66019504
     atom   22 type  4   force =    35.31040987   -0.94437816   25.73403196
     atom   23 type  5   force =     3.00336373   -0.01919889    0.54869482
     The local contribution  to forces
     atom    1 type  1   force =     0.13064779    4.71662980  -14.17394536
     atom    2 type  1   force =    39.79277877    6.35736527   -0.77832066
     atom    3 type  1   force =    39.76156264   -6.34406946    0.76399056
     atom    4 type  1   force =   -39.71857967    6.43232694   -0.77384498
     atom    5 type  1   force =   -39.68385704   -6.41735551    0.77029611
     atom    6 type  2   force =     0.23070875    3.90375150   14.23979792
     atom    7 type  2   force =     0.15078825   -3.77481062  -14.15164686
     atom    8 type  3   force =    52.50713622   -0.06994052    0.06915214
     atom    9 type  3   force =   -51.11279965   -0.10126090    0.37496936
     atom   10 type  3   force =    36.24483514    2.06196928   23.20657826
     atom   11 type  3   force =    35.29430804    0.83750352  -22.22340357
     atom   12 type  3   force =    35.42522505   -0.74585651   22.23919023
     atom   13 type  3   force =    36.18063721   -2.17873754  -23.21079975
     atom   14 type  3   force =   -36.19017138    2.09885074   23.24672039
     atom   15 type  3   force =   -35.19137749    0.90416697  -22.25193075
     atom   16 type  3   force =   -35.37111791   -0.77856751   22.27566430
     atom   17 type  3   force =   -36.07823901   -2.24472710  -23.23697793
     atom   18 type  4   force =     0.21664019   -4.68981084   14.16268894
     atom   19 type  4   force =    35.70913104   -0.96904145   25.33496516
     atom   20 type  4   force =    35.58208149    0.96836603  -25.34582816
     atom   21 type  4   force =   -35.66468859   -0.96952770   25.46637770
     atom   22 type  4   force =   -35.08914177    0.96229062  -25.53019781
     atom   23 type  5   force =    -3.03872356    0.01932517   -0.54442966
     The core correction contribution to forces
     atom    1 type  1   force =     0.00252508    0.00113192   -0.00063454
     atom    2 type  1   force =    -0.01281798   -0.00181204   -0.00022158
     atom    3 type  1   force =    -0.01269262    0.00287253   -0.00237723
     atom    4 type  1   force =     0.01397463   -0.00291864    0.00376160
     atom    5 type  1   force =     0.01424651    0.00331592    0.00147492
     atom    6 type  2   force =    -0.00038427    0.00193485    0.00204127
     atom    7 type  2   force =     0.00054989   -0.00280762   -0.00202512
     atom    8 type  3   force =    -0.03454839    0.00001227    0.00064216
     atom    9 type  3   force =     0.02284068   -0.00011033   -0.00200569
     atom   10 type  3   force =    -0.02188639    0.00959676   -0.01626861
     atom   11 type  3   force =    -0.02423836    0.00898706    0.01725757
     atom   12 type  3   force =    -0.02209395   -0.00972321   -0.01561764
     atom   13 type  3   force =    -0.02275406   -0.00850756    0.01718512
     atom   14 type  3   force =     0.02233060    0.01039620   -0.01630388
     atom   15 type  3   force =     0.02547995    0.01065886    0.01339708
     atom   16 type  3   force =     0.02205196   -0.01068488   -0.01582149
     atom   17 type  3   force =     0.02321289   -0.00939286    0.01387887
     atom   18 type  4   force =    -0.00033010   -0.00279803    0.00239349
     atom   19 type  4   force =    -0.00973494    0.00001056   -0.00946717
     atom   20 type  4   force =    -0.00933939    0.00041341    0.00883259
     atom   21 type  4   force =     0.00951756   -0.00001115   -0.00995256
     atom   22 type  4   force =     0.00973530    0.00022678    0.01122422
     atom   23 type  5   force =     0.00000000    0.00000000    0.00000000
     The Hubbard contrib.    to forces
     atom    1 type  1   force =     0.00000000    0.00000000    0.00000000
     atom    2 type  1   force =     0.00000000    0.00000000    0.00000000
     atom    3 type  1   force =     0.00000000    0.00000000    0.00000000
     atom    4 type  1   force =     0.00000000    0.00000000    0.00000000
     atom    5 type  1   force =     0.00000000    0.00000000    0.00000000
     atom    6 type  2   force =     0.00000000    0.00000000    0.00000000
     atom    7 type  2   force =     0.00000000    0.00000000    0.00000000
     atom    8 type  3   force =     0.00000000    0.00000000    0.00000000
     atom    9 type  3   force =     0.00000000    0.00000000    0.00000000
     atom   10 type  3   force =     0.00000000    0.00000000    0.00000000
     atom   11 type  3   force =     0.00000000    0.00000000    0.00000000
     atom   12 type  3   force =     0.00000000    0.00000000    0.00000000
     atom   13 type  3   force =     0.00000000    0.00000000    0.00000000
     atom   14 type  3   force =     0.00000000    0.00000000    0.00000000
     atom   15 type  3   force =     0.00000000    0.00000000    0.00000000
     atom   16 type  3   force =     0.00000000    0.00000000    0.00000000
     atom   17 type  3   force =     0.00000000    0.00000000    0.00000000
     atom   18 type  4   force =     0.00000000    0.00000000    0.00000000
     atom   19 type  4   force =     0.00000000    0.00000000    0.00000000
     atom   20 type  4   force =     0.00000000    0.00000000    0.00000000
     atom   21 type  4   force =     0.00000000    0.00000000    0.00000000
     atom   22 type  4   force =     0.00000000    0.00000000    0.00000000
     atom   23 type  5   force =     0.00000000    0.00000000    0.00000000
     The SCF correction term to forces
     atom    1 type  1   force =    -0.00196299    0.00068410   -0.00215392
     atom    2 type  1   force =    -0.00314191    0.00323541    0.01543499
     atom    3 type  1   force =    -0.00249796   -0.00394011    0.01589580
     atom    4 type  1   force =     0.00092810    0.00109357    0.01466889
     atom    5 type  1   force =     0.00068632   -0.00230354    0.01373068
     atom    6 type  2   force =    -0.00235314    0.00701873    0.03020001
     atom    7 type  2   force =    -0.00263806   -0.00060480   -0.00306972
     atom    8 type  3   force =    -0.00275147    0.00107674    0.01424390
     atom    9 type  3   force =     0.00341780    0.00143080    0.01655789
     atom   10 type  3   force =    -0.00363076    0.00722331    0.00890090
     atom   11 type  3   force =    -0.00494872   -0.00301432   -0.01574701
     atom   12 type  3   force =    -0.00191815   -0.00740518    0.00831286
     atom   13 type  3   force =    -0.00459255    0.00184194   -0.01634756
     atom   14 type  3   force =     0.00375722    0.00338862    0.00799543
     atom   15 type  3   force =     0.00301520   -0.00297238   -0.01484352
     atom   16 type  3   force =     0.00319062   -0.00574147    0.00865452
     atom   17 type  3   force =     0.00265810    0.00235647   -0.01515979
     atom   18 type  4   force =    -0.00069057   -0.00565309    0.02723806
     atom   19 type  4   force =    -0.00396258    0.00047524    0.01105513
     atom   20 type  4   force =    -0.00663302    0.00112323   -0.01655858
     atom   21 type  4   force =     0.00288121    0.00163026    0.00892286
     atom   22 type  4   force =     0.00193716    0.00084237   -0.01468293
     atom   23 type  5   force =    -0.00087692    0.00005969   -0.00093547

     Total force =     0.527610     Total SCF correction =     0.074260
     SCF correction compared to forces is large: reduce conv_thr to get better values

     Computing stress (Cartesian axis) and pressure

     negative rho (up, down):  9.086E-01 9.086E-01
          total   stress  (Ry/bohr**3)                   (kbar)     P=       81.77
   0.00063298   0.00000061   0.00000906           93.11        0.09        1.33
   0.00000061   0.00066863  -0.00001310            0.09       98.36       -1.93
   0.00000906  -0.00001310   0.00036595            1.33       -1.93       53.83

     Entering Dynamics:    iteration =    20
                           time      =   0.0041 pico-seconds

ATOMIC_POSITIONS (angstrom)
Hf            2.6721578936        2.8269132786        6.6053031582
Hf            1.2538093433        1.2861154458        5.0597016029
Hf            1.2563154098        7.3899538378        5.0893692750
Hf            4.0905176529        1.2860974306        5.0596744013
Hf            4.0880259285        7.3899513122        5.0893448798
Nb            2.6721727288        2.7965734167        3.5169885770
Nb            2.6721277507        5.8765521736        6.6360595038
Ta            1.2101421513        4.3409610272        5.0724578237
Ta            4.0882994038        4.3412245863        5.0445165613
Ta            1.3091713403        1.3137494984        2.0593906823
Ta            1.3047194250        1.3079684167        8.0964820186
Ta            1.3059672059        7.3762485167        2.0468961773
Ta            1.3096485116        7.3654263692        8.0879312726
Ta            4.0351874051        1.3138278794        2.0594080718
Ta            4.0396045595        1.3079702630        8.0964385647
Ta            4.0383986697        7.3761734369        2.0469106288
Ta            4.0346717566        7.3654456655        8.0879146803
Zr            2.6721659875        5.8667877246        3.5284692730
Zr            1.2431314401        4.3219722063        1.9986703879
Zr            1.2395714428        4.3542444152        8.1535209545
Zr            4.1012327169        4.3219583716        1.9985603056
Zr            4.1050197134        4.3542806411        8.1534674752
H             6.3743275733        4.3206987660        6.4889333203

     kinetic energy (Ekin) =           8.06573023 Ry
     temperature           =       38590.24488001 K
     Ekin + Etot (const)   =       -2934.96729093 Ry
     Ions kinetic stress =          142.45 (kbar)
                                    302.46          -3.03         194.15
                                     -3.03           0.04          -1.94
                                    194.15          -1.94         124.85

     Linear momentum :   -0.0000000000   -0.0000000000    0.0000000000

     The maximum number of steps has been reached.

     End of molecular dynamics calculation

     diffusion coefficients :
     atom     1   D =       0.00000003 cm^2/s
     atom     2   D =       0.00000001 cm^2/s
     atom     3   D =       0.00000001 cm^2/s
     atom     4   D =       0.00000006 cm^2/s
     atom     5   D =       0.00000006 cm^2/s
     atom     6   D =       0.00000003 cm^2/s
     atom     7   D =       0.00000002 cm^2/s
     atom     8   D =       0.00000001 cm^2/s
     atom     9   D =       0.00001025 cm^2/s
     atom    10   D =       0.00000002 cm^2/s
     atom    11   D =       0.00000003 cm^2/s
     atom    12   D =       0.00000002 cm^2/s
     atom    13   D =       0.00000003 cm^2/s
     atom    14   D =       0.00000003 cm^2/s
     atom    15   D =       0.00000004 cm^2/s
     atom    16   D =       0.00000003 cm^2/s
     atom    17   D =       0.00000004 cm^2/s
     atom    18   D =       0.00000003 cm^2/s
     atom    19   D =       0.00000001 cm^2/s
     atom    20   D =       0.00000006 cm^2/s
     atom    21   D =       0.00000011 cm^2/s
     atom    22   D =       0.00000018 cm^2/s
     atom    23   D =       0.00178753 cm^2/s

     < D > =       0.00007820 cm^2/s

     Writing all to output data dir outdir/pwscf.save/

     General routines

     Parallel routines

   This run was terminated on:  22:18:31  13Jun2023

   JOB DONE.