     Program PWSCF v.7.2 starts on 16Jun2023 at  0:10: 7

     Reading input from md_data/md_Hf5Nb2Ta10Zr5H_20steps_50eV_incident60_polar90.in
Warning: card &CELL ignored
Warning: card / ignored

     Current dimensions of program PWSCF are:
     Max number of different atomic species (ntypx) = 10
     Max number of k-points (npk) =  40000
     Max angular momentum in pseudopotentials (lmaxx) =  4

     File outdir/pwscf.md deleted, as requested

     gamma-point specific algorithms are used

     R & G space division:  proc/nbgrp/npool/nimage =      42
     Subspace diagonalization in iterative solution of the eigenvalue problem:
     one sub-group per band group will be used

     Using Slab Decomposition

     bravais-lattice index     =            0
     lattice parameter (alat)  =      17.6500  a.u.
     unit-cell volume          =    5552.8853 (a.u.)^3
     number of atoms/cell      =           23
     number of atomic types    =            5
     number of electrons       =       277.00
     number of Kohn-Sham states=          167
     kinetic-energy cutoff     =     120.0000  Ry
     charge density cutoff     =     480.0000  Ry
     scf convergence threshold =      1.0E-03
     mixing beta               =       0.7000
     number of iterations used =            8  TF        mixing
     energy convergence thresh.=      0.0E+00
     force convergence thresh. =      0.0E+00
     Exchange-correlation=  SLA  PW   PBX  PBC
                           (   1   4   3   4   0   0   0)
     nstep                     =           20

     celldm(1)=  17.650041  celldm(2)=   0.000000  celldm(3)=   0.000000
     celldm(4)=   0.000000  celldm(5)=   0.000000  celldm(6)=   0.000000

     crystal axes: (cart. coord. in units of alat)
               a(1) = (   1.000000   0.000000   0.000000 )
               a(2) = (   0.000000   0.929336   0.000000 )
               a(3) = (   0.000000   0.000000   1.086698 )

     reciprocal axes: (cart. coord. in units 2 pi/alat)
               b(1) = (  1.000000  0.000000  0.000000 )
               b(2) = (  0.000000  1.076037  0.000000 )
               b(3) = (  0.000000  0.000000  0.920219 )

     PseudoPot. # 1 for Hf read from file:
     q-e/pseudo/hf_pbe_v1.uspp.F.UPF
     MD5 check sum: 8ee9378dfe14276e333edf04c5e4aa26
     Pseudo is Ultrasoft + core correction, Zval = 12.0
     Generated by new atomic code, or converted to UPF format
     Using radial grid of  921 points,  8 beta functions with:
                l(1) =   0
                l(2) =   0
                l(3) =   0
                l(4) =   1
                l(5) =   1
                l(6) =   2
                l(7) =   2
                l(8) =   3
     Q(r) pseudized with  6 coefficients,  rinner =    1.200   1.200   1.200
                                                       1.200   1.200   1.200
                                                       1.200

     PseudoPot. # 2 for Nb read from file:
     q-e/pseudo/nb_pbe_v1.uspp.F.UPF
     MD5 check sum: 573aab8a2fa660278ed4a62cd769473f
     Pseudo is Ultrasoft + core correction, Zval = 13.0
     Generated by new atomic code, or converted to UPF format
     Using radial grid of  887 points,  6 beta functions with:
                l(1) =   0
                l(2) =   0
                l(3) =   1
                l(4) =   1
                l(5) =   2
                l(6) =   2
     Q(r) pseudized with  6 coefficients,  rinner =    1.000   1.000   1.000
                                                       1.000   1.000

     PseudoPot. # 3 for Ta read from file:
     q-e/pseudo/ta_pbe_v1.uspp.F.UPF
     MD5 check sum: f8bbe9446314a3b8ea5d9f3e3836c939
     Pseudo is Ultrasoft + core correction, Zval = 13.0
     Generated by new atomic code, or converted to UPF format
     Using radial grid of  921 points,  7 beta functions with:
                l(1) =   0
                l(2) =   0
                l(3) =   1
                l(4) =   1
                l(5) =   2
                l(6) =   2
                l(7) =   3
     Q(r) pseudized with  6 coefficients,  rinner =    1.300   1.300   1.300
                                                       1.300   1.300   1.300
                                                       1.300

     PseudoPot. # 4 for Zr read from file:
     q-e/pseudo/zr_pbe_v1.uspp.F.UPF
     MD5 check sum: 5db81b1e868ab7776c4564c113de050b
     Pseudo is Ultrasoft + core correction, Zval = 12.0
     Generated by new atomic code, or converted to UPF format
     Using radial grid of  887 points,  6 beta functions with:
                l(1) =   0
                l(2) =   0
                l(3) =   1
                l(4) =   1
                l(5) =   2
                l(6) =   2
     Q(r) pseudized with  6 coefficients,  rinner =    1.200   1.200   1.200
                                                       1.200   1.200

     PseudoPot. # 5 for H  read from file:
     q-e/pseudo/h_pbe_v1.4.uspp.F.UPF
     MD5 check sum: 761ae9a214b05c3daf00ab9f6b793d6f
     Pseudo is Ultrasoft, Zval =  1.0
     Generated by new atomic code, or converted to UPF format
     Using radial grid of  615 points,  2 beta functions with:
                l(1) =   0
                l(2) =   0
     Q(r) pseudized with  8 coefficients,  rinner =    0.700

     atomic species   valence    mass     pseudopotential
        Hf            12.00   178.49000     Hf( 1.00)
        Nb            13.00    92.90637     Nb( 1.00)
        Ta            13.00   180.94788     Ta( 1.00)
        Zr            12.00    91.22400     Zr( 1.00)
        H              1.00     2.01400     H ( 1.00)

     Starting magnetic structure
     atomic species   magnetization
        Hf           0.000
        Nb           0.000
        Ta           0.000
        Zr           0.000
        H            0.000

     No symmetry found

   Cartesian axes

     site n.     atom                  positions (alat units)
         1           Hf  tau(   1) = (   0.2858672   0.3026898   0.7070626  )
         2           Hf  tau(   2) = (   0.1341532   0.1377178   0.5415917  )
         3           Hf  tau(   3) = (   0.1344204   0.7911996   0.5447610  )
         4           Hf  tau(   4) = (   0.4375813   0.1377178   0.5415917  )
         5           Hf  tau(   5) = (   0.4373140   0.7911996   0.5447610  )
         6           Nb  tau(   6) = (   0.2858672   0.2994572   0.3764008  )
         7           Nb  tau(   7) = (   0.2858672   0.6291626   0.7103852  )
         8           Ta  tau(   8) = (   0.1294832   0.4647675   0.5429471  )
         9           Ta  tau(   9) = (   0.4422513   0.4647675   0.5429471  )
        10           Ta  tau(  10) = (   0.1399628   0.1406984   0.2204260  )
        11           Ta  tau(  11) = (   0.1394848   0.1400847   0.8666573  )
        12           Ta  tau(  12) = (   0.1396156   0.7897030   0.2190832  )
        13           Ta  tau(  13) = (   0.1400119   0.7885528   0.8657390  )
        14           Ta  tau(  14) = (   0.4317717   0.1406984   0.2204260  )
        15           Ta  tau(  15) = (   0.4322496   0.1400847   0.8666573  )
        16           Ta  tau(  16) = (   0.4321189   0.7897030   0.2190832  )
        17           Ta  tau(  17) = (   0.4317226   0.7885528   0.8657390  )
        18           Zr  tau(  18) = (   0.2858672   0.6280820   0.3776642  )
        19           Zr  tau(  19) = (   0.1331729   0.4627493   0.2141328  )
        20           Zr  tau(  20) = (   0.1328036   0.4661802   0.8725649  )
        21           Zr  tau(  21) = (   0.4385616   0.4627493   0.2141328  )
        22           Zr  tau(  22) = (   0.4389309   0.4661802   0.8725649  )
        23           H   tau(  23) = (   0.5493177   0.4646681   0.7285044  )

     number of k points=     1  Gaussian smearing, width (Ry)=  0.0220
                       cart. coord. in units 2pi/alat
        k(    1) = (   0.0000000   0.0000000   0.0000000), wk =   1.0000000

     Check: negative core charge=   -0.000002
     Generating pointlists ...
     new r_m :   0.1117 (alat units)  1.9717 (a.u.) for type    1
     new r_m :   0.1098 (alat units)  1.9374 (a.u.) for type    2
     new r_m :   0.0884 (alat units)  1.5597 (a.u.) for type    3
     new r_m :   0.0749 (alat units)  1.3214 (a.u.) for type    4
     new r_m :   0.0749 (alat units)  1.3214 (a.u.) for type    5

     Initial potential from superposition of free atoms

     starting charge     266.9726, renormalised to     277.0000

     negative rho (up, down):  9.216E-01 9.216E-01
     Starting wfcs are  287 randomized atomic wfcs

     Self-consistent Calculation

     iteration #  1     ecut=   120.00 Ry     beta= 0.70
     Davidson diagonalization with overlap
     ethr =  1.00E-02,  avg # of iterations =  2.0

     negative rho (up, down):  9.973E-01 9.968E-01

     total energy              =   -2930.56885715 Ry
     estimated scf accuracy    <     276.33954164 Ry

     total magnetization       =    -0.00 Bohr mag/cell
     absolute magnetization    =     0.09 Bohr mag/cell

[...]

     Magnetic moment per site  (integrated on atomic sphere of radius R)
     atom   1 (R=0.112)  charge=  9.4654   -0.0002
     atom   2 (R=0.112)  charge=  9.0575   -0.0001
     atom   3 (R=0.112)  charge=  9.0571   -0.0000
     atom   4 (R=0.112)  charge=  9.0619   -0.0003
     atom   5 (R=0.112)  charge=  9.0607   -0.0002
     atom   6 (R=0.110)  charge= 10.3472    0.0005
     atom   7 (R=0.110)  charge= 10.3524   -0.0001
     atom   8 (R=0.088)  charge=  8.1326   -0.0001
     atom   9 (R=0.088)  charge=  8.1278    0.0002
     atom  10 (R=0.088)  charge=  8.1104   -0.0007
     atom  11 (R=0.088)  charge=  8.1069   -0.0001
     atom  12 (R=0.088)  charge=  8.1100   -0.0025
     atom  13 (R=0.088)  charge=  8.1083   -0.0006
     atom  14 (R=0.088)  charge=  8.1078   -0.0007
     atom  15 (R=0.088)  charge=  8.1086    0.0002
     atom  16 (R=0.088)  charge=  8.1073   -0.0007
     atom  17 (R=0.088)  charge=  8.1123   -0.0004
     atom  18 (R=0.075)  charge=  5.8238    0.0000
     atom  19 (R=0.075)  charge=  5.7436   -0.0012
     atom  20 (R=0.075)  charge=  5.7431   -0.0001
     atom  21 (R=0.075)  charge=  5.7422   -0.0007
     atom  22 (R=0.075)  charge=  5.7565    0.0001
     atom  23 (R=0.075)  charge=  0.9831   -0.0000

     End of self-consistent calculation

 ------ SPIN UP ------------

          k = 0.0000 0.0000 0.0000 ( 61588 PWs)   bands (ev):

   -60.7735 -60.7694 -60.7256 -60.7240 -60.6909 -60.6902 -60.6471 -60.6409
   -60.5543 -60.5010 -54.3781 -54.3324 -54.2533 -54.2079 -52.7094 -46.2580
   -46.2305 -41.5975 -41.5927 -41.4918 -41.2319 -39.7675 -27.7745 -27.7661
   -27.6836 -27.6828 -27.5893 -27.5776 -27.4597 -27.4464 -27.4255 -27.3302
   -27.3136 -27.2606 -27.2552 -27.2424 -27.2183 -27.1778 -27.1652 -27.1527
   -27.1294 -27.1170 -27.0604 -27.0367 -26.9469 -26.9454 -26.9390 -26.9257
   -26.8795 -26.8702 -26.8445 -26.8433 -24.1628 -23.9552 -23.6482 -23.5682
   -23.3080 -23.1768 -23.1506 -23.0558 -22.9241 -22.8531 -22.8398 -22.6210
   -22.4914 -22.4356 -22.3792 -22.3427 -22.2607 -22.2205 -21.7500 -21.7087
   -21.6297 -20.1660 -19.8369 -19.8076 -19.7789 -19.5866 -19.5700 -19.5468
[...]

     convergence has been achieved in   5 iterations

     negative rho (up, down):  9.086E-01 9.086E-01

     Forces acting on atoms (cartesian axes, Ry/au):

     atom    1 type  1   force =    -0.01267419   -0.02583447    0.00853205
     atom    2 type  1   force =    -0.11266757   -0.01374010   -0.00010838
     atom    3 type  1   force =    -0.11102613    0.01036757    0.00559519
     atom    4 type  1   force =     0.11089014   -0.02349656   -0.00408932
     atom    5 type  1   force =     0.11113208    0.01988817    0.00193725
     atom    6 type  2   force =    -0.00935231   -0.02160075    0.00037066
     atom    7 type  2   force =    -0.01412942    0.01836805   -0.00942821
     atom    8 type  3   force =    -0.11150258    0.00249026   -0.00252251
     atom    9 type  3   force =     0.05396196    0.00470350   -0.08699991
     atom   10 type  3   force =    -0.02260745   -0.02993615   -0.06266189
     atom   11 type  3   force =    -0.01532892   -0.03409525    0.05906561
     atom   12 type  3   force =    -0.01754848    0.03518870   -0.05755890
     atom   13 type  3   force =    -0.01493643    0.02749830    0.06173722
     atom   14 type  3   force =     0.02221855   -0.02841038   -0.05904769
     atom   15 type  3   force =     0.01471631   -0.04296169    0.05629720
     atom   16 type  3   force =     0.01810629    0.03387743   -0.05452316
     atom   17 type  3   force =     0.01281514    0.03652148    0.05954054
     atom   18 type  4   force =    -0.01193843    0.03091504   -0.01837007
     atom   19 type  4   force =    -0.12570405   -0.00495378   -0.11771071
     atom   20 type  4   force =    -0.12753804    0.00535454    0.11455420
     atom   21 type  4   force =     0.12814365   -0.00542407   -0.12628217
     atom   22 type  4   force =     0.13612683    0.00893747    0.11306993
     atom   23 type  5   force =     0.09884303   -0.00365731    0.11860306
     The non-local contrib.  to forces
     atom    1 type  1   force =     0.00916339   -0.00978393    0.03122359
     atom    2 type  1   force =    -0.24488866   -0.16244565    0.01942732
     atom    3 type  1   force =    -0.23963650    0.15756145   -0.02267742
     atom    4 type  1   force =     0.25839243   -0.16128770    0.03708944
     atom    5 type  1   force =     0.24905885    0.15439185   -0.00843885
     atom    6 type  2   force =     0.00940290   -0.04832523   -0.05930730
     atom    7 type  2   force =    -0.00314711    0.07023522    0.05516243
     atom    8 type  3   force =    -0.25977288   -0.00005078    0.00526111
     atom    9 type  3   force =     0.18453790    0.00081424   -0.03767147
     atom   10 type  3   force =    -0.21243857    0.00472257   -0.20620575
     atom   11 type  3   force =    -0.21496102    0.00809239    0.19683677
     atom   12 type  3   force =    -0.20358428   -0.01903635   -0.17807217
     atom   13 type  3   force =    -0.20317088   -0.00542986    0.20776946
     atom   14 type  3   force =     0.21234270    0.00926057   -0.22186249
     atom   15 type  3   force =     0.22854818    0.00677967    0.17479409
     atom   16 type  3   force =     0.20151988   -0.02517421   -0.19040067
     atom   17 type  3   force =     0.21483734   -0.00491512    0.18246387
     atom   18 type  4   force =     0.00679235    0.05492286   -0.06037540
     atom   19 type  4   force =     0.05810523    0.00870256    0.07125815
     atom   20 type  4   force =     0.04849378   -0.01312444   -0.06544284
     atom   21 type  4   force =    -0.06280294    0.00799753    0.06763616
     atom   22 type  4   force =    -0.04343253   -0.00981930   -0.08156098
     atom   23 type  5   force =    -0.04941392    0.00008271   -0.03047700
     The ionic contribution  to forces
     atom    1 type  1   force =    -0.54744362   -4.89179140   14.05803260
     atom    2 type  1   force =   -39.73670391   -6.19075386    0.72903214
     atom    3 type  1   force =   -39.71024818    6.17896156   -0.76433215
     atom    4 type  1   force =    39.53362203   -6.42584295    0.63320352
     atom    5 type  1   force =    39.50688417    6.41264429   -0.85594113
     atom    6 type  2   force =    -0.31264626   -3.78288191  -14.18018129
     atom    7 type  2   force =    -0.57746269    3.90908404   13.99518905
     atom    8 type  3   force =   -52.36776306    0.07149698   -0.13831754
     atom    9 type  3   force =    50.53467372    0.10860654   -2.13533503
     atom   10 type  3   force =   -36.06729228   -2.10590738  -23.04088262
     atom   11 type  3   force =   -35.17631373   -0.89143709   22.08096154
     atom   12 type  3   force =   -35.25444384    0.80984186  -22.09581406
     atom   13 type  3   force =   -36.07481386    2.22578287   23.05971299
     atom   14 type  3   force =    35.98128385   -2.15572870  -23.08805686
     atom   15 type  3   force =    34.96510778   -1.09204656   22.21412507
     atom   16 type  3   force =    35.16947269    0.85856368  -22.14187775
     atom   17 type  3   force =    35.86318598    2.42361758   23.18976571
     atom   18 type  4   force =    -0.29414994    4.57418918  -14.12257258
     atom   19 type  4   force =   -35.91794239    0.95405240  -25.48387375
     atom   20 type  4   force =   -35.97415681   -0.95057505   25.51768334
     atom   21 type  4   force =    35.79178765    0.95282499  -25.67414763
     atom   22 type  4   force =    35.07408362   -0.93240224   26.74815233
     atom   23 type  5   force =     5.59127908   -0.06029882    1.49547409
     The local contribution  to forces
     atom    1 type  1   force =     0.52508370    4.86616681  -14.05599020
     atom    2 type  1   force =    39.88707459    6.33730273   -0.73731913
     atom    3 type  1   force =    39.85747280   -6.32537075    0.80651913
     atom    4 type  1   force =   -39.70057358    6.55922970   -0.66411491
     atom    5 type  1   force =   -39.66464200   -6.54269906    0.87874066
     atom    6 type  2   force =     0.29160555    3.80252424   14.22844446
     atom    7 type  2   force =     0.56681201   -3.94949407  -14.02766083
     atom    8 type  3   force =    52.54917708   -0.06831252    0.14225838
     atom    9 type  3   force =   -50.68554762   -0.10461738    2.11165196
     atom   10 type  3   force =    36.28644055    2.06542199   23.18814474
     atom   11 type  3   force =    35.40602313    0.83528822  -22.22735218
     atom   12 type  3   force =    35.46926917   -0.74877707   22.22006482
     atom   13 type  3   force =    36.29209168   -2.18013143  -23.21482855
     atom   14 type  3   force =   -36.19872307    2.11448581   23.25456489
     atom   15 type  3   force =   -35.20729648    1.02912432  -22.33683595
     atom   16 type  3   force =   -35.37924751   -0.79491562   22.28106956
     atom   17 type  3   force =   -36.09185589   -2.37042587  -23.31791461
     atom   18 type  4   force =     0.27312483   -4.59163610   14.15455806
     atom   19 type  4   force =    35.75558342   -0.96819150   25.28997596
     atom   20 type  4   force =    35.81622370    0.96908014  -25.33572413
     atom   21 type  4   force =   -35.62044857   -0.96664204   25.46986967
     atom   22 type  4   force =   -34.90521270    0.95106770  -26.55247927
     atom   23 type  5   force =    -5.44252267    0.05653260   -1.34191582
     The core correction contribution to forces
     atom    1 type  1   force =     0.00150800    0.00294311   -0.00078583
     atom    2 type  1   force =    -0.01206849   -0.00167967    0.00060518
     atom    3 type  1   force =    -0.01235670    0.00247455   -0.00144021
     atom    4 type  1   force =     0.01432490   -0.00231887    0.00258856
     atom    5 type  1   force =     0.01447513    0.00192895    0.00072831
     atom    6 type  2   force =    -0.00055194    0.00221119    0.00238493
     atom    7 type  2   force =     0.00041177   -0.00347356   -0.00204272
     atom    8 type  3   force =    -0.03131203    0.00011340   -0.00009573
     atom    9 type  3   force =     0.01957750    0.00043980   -0.00889663
     atom   10 type  3   force =    -0.02169522    0.00962556   -0.01581154
     atom   11 type  3   force =    -0.02341441    0.00980675    0.01744928
     atom   12 type  3   force =    -0.02173573   -0.00982879   -0.01528147
     atom   13 type  3   force =    -0.02174552   -0.00930296    0.01689895
     atom   14 type  3   force =     0.02174204    0.00835760   -0.01717555
     atom   15 type  3   force =     0.02589962    0.01050750    0.01444378
     atom   16 type  3   force =     0.02139482   -0.00878388   -0.01643758
     atom   17 type  3   force =     0.02316364   -0.00918408    0.01482089
     atom   18 type  4   force =    -0.00041489   -0.00291624    0.00288406
     atom   19 type  4   force =    -0.00944688    0.00005335   -0.00963872
     atom   20 type  4   force =    -0.00895861    0.00034058    0.00926462
     atom   21 type  4   force =     0.00972989    0.00008537   -0.00971491
     atom   22 type  4   force =     0.00810895    0.00018565    0.01093598
     atom   23 type  5   force =     0.00000000    0.00000000    0.00000000
     The Hubbard contrib.    to forces
     atom    1 type  1   force =     0.00000000    0.00000000    0.00000000
     atom    2 type  1   force =     0.00000000    0.00000000    0.00000000
     atom    3 type  1   force =     0.00000000    0.00000000    0.00000000
     atom    4 type  1   force =     0.00000000    0.00000000    0.00000000
     atom    5 type  1   force =     0.00000000    0.00000000    0.00000000
     atom    6 type  2   force =     0.00000000    0.00000000    0.00000000
     atom    7 type  2   force =     0.00000000    0.00000000    0.00000000
     atom    8 type  3   force =     0.00000000    0.00000000    0.00000000
     atom    9 type  3   force =     0.00000000    0.00000000    0.00000000
     atom   10 type  3   force =     0.00000000    0.00000000    0.00000000
     atom   11 type  3   force =     0.00000000    0.00000000    0.00000000
     atom   12 type  3   force =     0.00000000    0.00000000    0.00000000
     atom   13 type  3   force =     0.00000000    0.00000000    0.00000000
     atom   14 type  3   force =     0.00000000    0.00000000    0.00000000
     atom   15 type  3   force =     0.00000000    0.00000000    0.00000000
     atom   16 type  3   force =     0.00000000    0.00000000    0.00000000
     atom   17 type  3   force =     0.00000000    0.00000000    0.00000000
     atom   18 type  4   force =     0.00000000    0.00000000    0.00000000
     atom   19 type  4   force =     0.00000000    0.00000000    0.00000000
     atom   20 type  4   force =     0.00000000    0.00000000    0.00000000
     atom   21 type  4   force =     0.00000000    0.00000000    0.00000000
     atom   22 type  4   force =     0.00000000    0.00000000    0.00000000
     atom   23 type  5   force =     0.00000000    0.00000000    0.00000000
     The SCF correction term to forces
     atom    1 type  1   force =    -0.00074199    0.00658748   -0.02293052
     atom    2 type  1   force =    -0.00583745    0.00379288   -0.01083629
     atom    3 type  1   force =    -0.00601388   -0.00330269   -0.01145656
     atom    4 type  1   force =     0.00536803    0.00667980   -0.01183834
     atom    5 type  1   force =     0.00559961   -0.00642132   -0.01213414
     atom    6 type  2   force =     0.00308111    0.00482750    0.01004746
     atom    7 type  2   force =    -0.00049974   -0.00802704   -0.02905853
     atom    8 type  3   force =    -0.00158802   -0.00080027   -0.01061113
     atom    9 type  3   force =     0.00096413   -0.00058316   -0.01573115
     atom   10 type  3   force =    -0.00737826   -0.00384235    0.01311087
     atom   11 type  3   force =    -0.00641923    0.00411102   -0.00781222
     atom   12 type  3   force =    -0.00681012    0.00294559    0.01256158
     atom   13 type  3   force =    -0.00705418   -0.00346379   -0.00679803
     atom   14 type  3   force =     0.00581671   -0.00482913    0.01449992
     atom   15 type  3   force =     0.00270088    0.00262992   -0.00921219
     atom   16 type  3   force =     0.00521007    0.00414399    0.01414087
     atom   17 type  3   force =     0.00372774   -0.00261450   -0.00857772
     atom   18 type  4   force =     0.00295288   -0.00368812    0.00815338
     atom   19 type  4   force =    -0.01175975    0.00038595    0.01558524
     atom   20 type  4   force =    -0.00889644   -0.00041014   -0.01020920
     atom   21 type  4   force =     0.01012128    0.00026661    0.02109213
     atom   22 type  4   force =     0.00282317   -0.00013781   -0.01096053
     atom   23 type  5   force =    -0.00025579   -0.00001726   -0.00346061

     Total force =     0.513372     Total SCF correction =     0.074041
     SCF correction compared to forces is large: reduce conv_thr to get better values

     Computing stress (Cartesian axis) and pressure

     negative rho (up, down):  9.086E-01 9.086E-01
          total   stress  (Ry/bohr**3)                   (kbar)     P=       88.72
   0.00068991  -0.00000034   0.00004274          101.49       -0.05        6.29
  -0.00000034   0.00067794  -0.00001166           -0.05       99.73       -1.71
   0.00004274  -0.00001166   0.00044145            6.29       -1.71       64.94

     Entering Dynamics:    iteration =    20
                           time      =   0.0041 pico-seconds

ATOMIC_POSITIONS (angstrom)
Hf            2.6708002595        2.8268773594        6.6055143343
Hf            1.2525516539        1.2861356698        5.0599419987
Hf            1.2550532658        7.3899230387        5.0896194951
Hf            4.0892113949        1.2860901408        5.0599305927
Hf            4.0867184804        7.3899610117        5.0895964530
Nb            2.6708932246        2.7966110648        3.5173085356
Nb            2.6707166275        5.8766862169        6.6362840851
Ta            1.2089249851        4.3409608720        5.0726624759
Ta            4.1175120201        4.3410889375        5.0474518678
Ta            1.3078662889        1.3137427017        2.0596634730
Ta            1.3034725652        1.3079981481        8.0967786497
Ta            1.3046724395        7.3762558429        2.0471653071
Ta            1.3084091396        7.3654049602        8.0882335929
Ta            4.0338794201        1.3138079380        2.0596685615
Ta            4.0382929425        1.3079672458        8.0967380216
Ta            4.0370803092        7.3762047774        2.0471747378
Ta            4.0333461475        7.3654398818        8.0882071439
Zr            2.6708957734        5.8667585861        3.5287434658
Zr            1.2418381915        4.3219720768        1.9989593455
Zr            1.2383432857        4.3542395002        8.1538754781
Zr            4.1000030350        4.3219533934        1.9987234729
Zr            4.1034343949        4.3542926156        8.1539731556
H             5.0555304921        4.3290895782        6.5318814713

     kinetic energy (Ekin) =           4.03443423 Ry
     temperature           =       19302.62983129 K
     Ekin + Etot (const)   =       -2939.02043560 Ry
     Ions kinetic stress =           71.25 (kbar)
                                     62.77          -0.99          97.10
                                     -0.99           0.03          -1.54
                                     97.10          -1.54         150.96

     Linear momentum :   -0.0000000000    0.0000000000   -0.0000000000

     The maximum number of steps has been reached.

     End of molecular dynamics calculation

     diffusion coefficients :
     atom     1   D =       0.00000001 cm^2/s
     atom     2   D =       0.00000001 cm^2/s
     atom     3   D =       0.00000001 cm^2/s
     atom     4   D =       0.00000003 cm^2/s
     atom     5   D =       0.00000003 cm^2/s
     atom     6   D =       0.00000002 cm^2/s
     atom     7   D =       0.00000001 cm^2/s
     atom     8   D =       0.00000001 cm^2/s
     atom     9   D =       0.00000300 cm^2/s
     atom    10   D =       0.00000001 cm^2/s
     atom    11   D =       0.00000002 cm^2/s
     atom    12   D =       0.00000001 cm^2/s
     atom    13   D =       0.00000002 cm^2/s
     atom    14   D =       0.00000001 cm^2/s
     atom    15   D =       0.00000002 cm^2/s
     atom    16   D =       0.00000001 cm^2/s
     atom    17   D =       0.00000003 cm^2/s
     atom    18   D =       0.00000001 cm^2/s
     atom    19   D =       0.00000002 cm^2/s
     atom    20   D =       0.00000009 cm^2/s
     atom    21   D =       0.00000007 cm^2/s
     atom    22   D =       0.00000013 cm^2/s
     atom    23   D =       0.00032783 cm^2/s

     < D > =       0.00001441 cm^2/s

     Writing all to output data dir outdir/pwscf.save/

     General routines

     Parallel routines

   This run was terminated on:   1: 5:35  16Jun2023

   JOB DONE.