     Program PWSCF v.7.2 starts on 12Jun2023 at 15: 9:45

     Reading input from md_data/md_Hf5Nb2Ta10Zr5H_30steps_2000eV_incident75_polar0.in
Warning: card &CELL ignored
Warning: card / ignored

     Current dimensions of program PWSCF are:
     Max number of different atomic species (ntypx) = 10
     Max number of k-points (npk) =  40000
     Max angular momentum in pseudopotentials (lmaxx) =  4

     File outdir/pwscf.md deleted, as requested

     gamma-point specific algorithms are used

     R & G space division:  proc/nbgrp/npool/nimage =      42
     Subspace diagonalization in iterative solution of the eigenvalue problem:
     one sub-group per band group will be used

     Using Slab Decomposition

     bravais-lattice index     =            0
     lattice parameter (alat)  =      17.6500  a.u.
     unit-cell volume          =    5552.8853 (a.u.)^3
     number of atoms/cell      =           23
     number of atomic types    =            5
     number of electrons       =       277.00
     number of Kohn-Sham states=          167
     kinetic-energy cutoff     =     120.0000  Ry
     charge density cutoff     =     480.0000  Ry
     scf convergence threshold =      1.0E-03
     mixing beta               =       0.7000
     number of iterations used =            8  TF        mixing
     energy convergence thresh.=      0.0E+00
     force convergence thresh. =      0.0E+00
     Exchange-correlation=  SLA  PW   PBX  PBC
                           (   1   4   3   4   0   0   0)
     nstep                     =           30

     celldm(1)=  17.650041  celldm(2)=   0.000000  celldm(3)=   0.000000
     celldm(4)=   0.000000  celldm(5)=   0.000000  celldm(6)=   0.000000

     crystal axes: (cart. coord. in units of alat)
               a(1) = (   1.000000   0.000000   0.000000 )
               a(2) = (   0.000000   0.929336   0.000000 )
               a(3) = (   0.000000   0.000000   1.086698 )

     reciprocal axes: (cart. coord. in units 2 pi/alat)
               b(1) = (  1.000000  0.000000  0.000000 )
               b(2) = (  0.000000  1.076037  0.000000 )
               b(3) = (  0.000000  0.000000  0.920219 )

     PseudoPot. # 1 for Hf read from file:
     q-e/pseudo/hf_pbe_v1.uspp.F.UPF
     MD5 check sum: 8ee9378dfe14276e333edf04c5e4aa26
     Pseudo is Ultrasoft + core correction, Zval = 12.0
     Generated by new atomic code, or converted to UPF format
     Using radial grid of  921 points,  8 beta functions with:
                l(1) =   0
                l(2) =   0
                l(3) =   0
                l(4) =   1
                l(5) =   1
                l(6) =   2
                l(7) =   2
                l(8) =   3
     Q(r) pseudized with  6 coefficients,  rinner =    1.200   1.200   1.200
                                                       1.200   1.200   1.200
                                                       1.200

     PseudoPot. # 2 for Nb read from file:
     q-e/pseudo/nb_pbe_v1.uspp.F.UPF
     MD5 check sum: 573aab8a2fa660278ed4a62cd769473f
     Pseudo is Ultrasoft + core correction, Zval = 13.0
     Generated by new atomic code, or converted to UPF format
     Using radial grid of  887 points,  6 beta functions with:
                l(1) =   0
                l(2) =   0
                l(3) =   1
                l(4) =   1
                l(5) =   2
                l(6) =   2
     Q(r) pseudized with  6 coefficients,  rinner =    1.000   1.000   1.000
                                                       1.000   1.000

     PseudoPot. # 3 for Ta read from file:
     q-e/pseudo/ta_pbe_v1.uspp.F.UPF
     MD5 check sum: f8bbe9446314a3b8ea5d9f3e3836c939
     Pseudo is Ultrasoft + core correction, Zval = 13.0
     Generated by new atomic code, or converted to UPF format
     Using radial grid of  921 points,  7 beta functions with:
                l(1) =   0
                l(2) =   0
                l(3) =   1
                l(4) =   1
                l(5) =   2
                l(6) =   2
                l(7) =   3
     Q(r) pseudized with  6 coefficients,  rinner =    1.300   1.300   1.300
                                                       1.300   1.300   1.300
                                                       1.300

     PseudoPot. # 4 for Zr read from file:
     q-e/pseudo/zr_pbe_v1.uspp.F.UPF
     MD5 check sum: 5db81b1e868ab7776c4564c113de050b
     Pseudo is Ultrasoft + core correction, Zval = 12.0
     Generated by new atomic code, or converted to UPF format
     Using radial grid of  887 points,  6 beta functions with:
                l(1) =   0
                l(2) =   0
                l(3) =   1
                l(4) =   1
                l(5) =   2
                l(6) =   2
     Q(r) pseudized with  6 coefficients,  rinner =    1.200   1.200   1.200
                                                       1.200   1.200

     PseudoPot. # 5 for H  read from file:
     q-e/pseudo/h_pbe_v1.4.uspp.F.UPF
     MD5 check sum: 761ae9a214b05c3daf00ab9f6b793d6f
     Pseudo is Ultrasoft, Zval =  1.0
     Generated by new atomic code, or converted to UPF format
     Using radial grid of  615 points,  2 beta functions with:
                l(1) =   0
                l(2) =   0
     Q(r) pseudized with  8 coefficients,  rinner =    0.700

     atomic species   valence    mass     pseudopotential
        Hf            12.00   178.49000     Hf( 1.00)
        Nb            13.00    92.90637     Nb( 1.00)
        Ta            13.00   180.94788     Ta( 1.00)
        Zr            12.00    91.22400     Zr( 1.00)
        H              1.00     2.01400     H ( 1.00)

     Starting magnetic structure
     atomic species   magnetization
        Hf           0.000
        Nb           0.000
        Ta           0.000
        Zr           0.000
        H            0.000

     No symmetry found

   Cartesian axes

     site n.     atom                  positions (alat units)
         1           Hf  tau(   1) = (   0.2858672   0.3026898   0.7070626  )
         2           Hf  tau(   2) = (   0.1341532   0.1377178   0.5415917  )
         3           Hf  tau(   3) = (   0.1344204   0.7911996   0.5447610  )
         4           Hf  tau(   4) = (   0.4375813   0.1377178   0.5415917  )
         5           Hf  tau(   5) = (   0.4373140   0.7911996   0.5447610  )
         6           Nb  tau(   6) = (   0.2858672   0.2994572   0.3764008  )
         7           Nb  tau(   7) = (   0.2858672   0.6291626   0.7103852  )
         8           Ta  tau(   8) = (   0.1294832   0.4647675   0.5429471  )
         9           Ta  tau(   9) = (   0.4422513   0.4647675   0.5429471  )
        10           Ta  tau(  10) = (   0.1399628   0.1406984   0.2204260  )
        11           Ta  tau(  11) = (   0.1394848   0.1400847   0.8666573  )
        12           Ta  tau(  12) = (   0.1396156   0.7897030   0.2190832  )
        13           Ta  tau(  13) = (   0.1400119   0.7885528   0.8657390  )
        14           Ta  tau(  14) = (   0.4317717   0.1406984   0.2204260  )
        15           Ta  tau(  15) = (   0.4322496   0.1400847   0.8666573  )
        16           Ta  tau(  16) = (   0.4321189   0.7897030   0.2190832  )
        17           Ta  tau(  17) = (   0.4317226   0.7885528   0.8657390  )
        18           Zr  tau(  18) = (   0.2858672   0.6280820   0.3776642  )
        19           Zr  tau(  19) = (   0.1331729   0.4627493   0.2141328  )
        20           Zr  tau(  20) = (   0.1328036   0.4661802   0.8725649  )
        21           Zr  tau(  21) = (   0.4385616   0.4627493   0.2141328  )
        22           Zr  tau(  22) = (   0.4389309   0.4661802   0.8725649  )
        23           H   tau(  23) = (   0.4976729   0.6715045   0.5430600  )

     number of k points=     1  Gaussian smearing, width (Ry)=  0.0220
                       cart. coord. in units 2pi/alat
        k(    1) = (   0.0000000   0.0000000   0.0000000), wk =   1.0000000

     Check: negative core charge=   -0.000002
     Generating pointlists ...
     new r_m :   0.0553 (alat units)  0.9761 (a.u.) for type    1
     new r_m :   0.1098 (alat units)  1.9374 (a.u.) for type    2
     new r_m :   0.0883 (alat units)  1.5583 (a.u.) for type    3
     new r_m :   0.1112 (alat units)  1.9625 (a.u.) for type    4
     new r_m :   0.0553 (alat units)  0.9761 (a.u.) for type    5

     Initial potential from superposition of free atoms

     starting charge     266.9726, renormalised to     277.0000

     negative rho (up, down):  9.211E-01 9.211E-01
     Starting wfcs are  287 randomized atomic wfcs

     Self-consistent Calculation

     iteration #  1     ecut=   120.00 Ry     beta= 0.70
     Davidson diagonalization with overlap
     ethr =  1.00E-02,  avg # of iterations =  2.0

     negative rho (up, down):  9.927E-01 9.923E-01

     total energy              =   -2930.58431981 Ry
     estimated scf accuracy    <     275.85505655 Ry

     total magnetization       =    -0.00 Bohr mag/cell
     absolute magnetization    =     0.09 Bohr mag/cell

[...]

     Magnetic moment per site  (integrated on atomic sphere of radius R)
     atom   1 (R=0.055)  charge=  2.8629  magn=  0.0000
     atom   2 (R=0.055)  charge=  2.8460  magn= -0.0000
     atom   3 (R=0.055)  charge=  2.8453  magn=  0.0000
     atom   4 (R=0.055)  charge=  2.8470  magn= -0.0000
     atom   5 (R=0.055)  charge=  2.8630  magn= -0.0000
     atom   6 (R=0.110)  charge= 10.3436  magn= -0.0003
     atom   7 (R=0.110)  charge= 10.3481  magn= -0.0001
     atom   8 (R=0.088)  charge=  8.1217  magn=  0.0000
     atom   9 (R=0.088)  charge=  8.1184  magn=  0.0002
     atom  10 (R=0.088)  charge=  8.1018  magn= -0.0001
     atom  11 (R=0.088)  charge=  8.0980  magn= -0.0008
     atom  12 (R=0.088)  charge=  8.1012  magn= -0.0003
     atom  13 (R=0.088)  charge=  8.1020  magn= -0.0001
     atom  14 (R=0.088)  charge=  8.1021  magn= -0.0003
     atom  15 (R=0.088)  charge=  8.0979  magn= -0.0004
     atom  16 (R=0.088)  charge=  8.1038  magn= -0.0006
     atom  17 (R=0.088)  charge=  8.1015  magn= -0.0003
     atom  18 (R=0.111)  charge=  9.4520  magn= -0.0000
     atom  19 (R=0.111)  charge=  9.0008  magn=  0.0002
     atom  20 (R=0.111)  charge=  8.9923  magn=  0.0003
     atom  21 (R=0.111)  charge=  9.0060  magn=  0.0001
     atom  22 (R=0.111)  charge=  8.9943  magn=  0.0003
     atom  23 (R=0.055)  charge=  0.8274  magn= -0.0000

     End of self-consistent calculation

 ------ SPIN UP ------------

          k = 0.0000 0.0000 0.0000 ( 61588 PWs)   bands (ev):

   -60.7790 -60.7747 -60.7334 -60.7312 -60.7002 -60.6813 -60.6572 -60.6375
   -60.5822 -60.5531 -54.3879 -54.3452 -54.2522 -53.8434 -52.6875 -46.2860
   -46.2489 -41.6527 -41.6283 -41.5524 -41.5452 -39.8274 -27.7803 -27.7715
   -27.6944 -27.6827 -27.6003 -27.5836 -27.4721 -27.4616 -27.4432 -27.3309
   -27.3161 -27.2652 -27.2618 -27.2497 -27.2172 -27.1990 -27.1858 -27.1611
   -27.1494 -27.1337 -27.1089 -27.0794 -26.9553 -26.9523 -26.9407 -26.9363
   -26.8834 -26.8785 -26.8540 -26.8413 -24.2483 -24.0584 -23.6804 -23.5489
   -23.3074 -23.1739 -23.1125 -23.0477 -22.9246 -22.9197 -22.7252 -22.5713
   -22.5100 -22.4506 -22.3856 -22.3128 -22.2629 -22.1294 -21.7462 -21.6909
[...]
     absolute magnetization    =     0.00 Bohr mag/cell

     convergence has been achieved in   5 iterations

     negative rho (up, down):  9.082E-01 9.082E-01

     Forces acting on atoms (cartesian axes, Ry/au):

     atom    1 type  1   force =    -0.08602204   -0.08436345    0.05889924
     atom    2 type  1   force =    -0.10838889   -0.00970667    0.00532721
     atom    3 type  1   force =    -0.19648833    0.10567810   -0.07339539
     atom    4 type  1   force =     0.11315110   -0.06698767    0.00104491
     atom    5 type  1   force =     0.13022769    0.00619181    0.00120300
     atom    6 type  2   force =    -0.06564728   -0.06857473   -0.03904841
     atom    7 type  2   force =     0.99118497   -0.68341613    1.00853811
     atom    8 type  3   force =    -0.11985036   -0.01125373   -0.01121116
     atom    9 type  3   force =     0.20544716    0.19028805   -0.01931924
     atom   10 type  3   force =    -0.01738097   -0.02419132   -0.06054923
     atom   11 type  3   force =    -0.01694262   -0.03086568    0.05713930
     atom   12 type  3   force =    -0.01541010    0.04239381   -0.05970488
     atom   13 type  3   force =    -0.01899078    0.04650001    0.07506203
     atom   14 type  3   force =     0.02254066   -0.03104272   -0.05891830
     atom   15 type  3   force =     0.03310882   -0.02658566    0.06347690
     atom   16 type  3   force =     0.01501988    0.03212164   -0.05601636
     atom   17 type  3   force =     0.00658667    0.04311170    0.05892614
     atom   18 type  4   force =     0.02441000   -0.01127942   -0.00646450
     atom   19 type  4   force =    -0.12225587    0.00101690   -0.11717875
     atom   20 type  4   force =    -0.12623467    0.00353076    0.11407368
     atom   21 type  4   force =     0.12265448   -0.00561779   -0.12266907
     atom   22 type  4   force =     0.11672506    0.00299370    0.11361285
     atom   23 type  5   force =    -0.88744458    0.58005851   -0.93282808
     The non-local contrib.  to forces
     atom    1 type  1   force =     0.04061756    0.02788959   -0.04749482
     atom    2 type  1   force =    -0.23528708   -0.16566904    0.02784592
     atom    3 type  1   force =    -0.23896961    0.14042648   -0.01813947
     atom    4 type  1   force =     0.23460279   -0.17247159    0.01605062
     atom    5 type  1   force =     0.26724087    0.11739224   -0.02702235
     atom    6 type  2   force =     0.04089398   -0.00700973   -0.01965931
     atom    7 type  2   force =     0.01190467    0.04888042    0.05652136
     atom    8 type  3   force =    -0.25939170    0.02792057   -0.00604886
     atom    9 type  3   force =     0.12592079   -0.08237076    0.03078180
     atom   10 type  3   force =    -0.21677214    0.01220180   -0.21870469
     atom   11 type  3   force =    -0.22717836    0.00707652    0.19722977
     atom   12 type  3   force =    -0.19137559   -0.02358705   -0.16697033
     atom   13 type  3   force =    -0.20886851   -0.00320060    0.20859405
     atom   14 type  3   force =     0.21371681    0.01182713   -0.20455121
     atom   15 type  3   force =     0.21557909    0.00823282    0.19046932
     atom   16 type  3   force =     0.19985997   -0.01309764   -0.19137393
     atom   17 type  3   force =     0.18958117   -0.00074849    0.21285687
     atom   18 type  4   force =     0.00196565    0.06054618   -0.07041984
     atom   19 type  4   force =     0.05989686    0.01788089    0.06928044
     atom   20 type  4   force =     0.05114457   -0.03399985   -0.05062204
     atom   21 type  4   force =    -0.06976409    0.00296565    0.07904650
     atom   22 type  4   force =    -0.04206515   -0.00376559   -0.05903245
     atom   23 type  5   force =     0.13234928   -0.06683476    0.14243473
     The ionic contribution  to forces
     atom    1 type  1   force =    -1.63858593   -5.29120449   16.64695797
     atom    2 type  1   force =   -40.39928688   -6.55462021    0.67563099
     atom    3 type  1   force =   -40.65131522    7.48006526   -2.17784238
     atom    4 type  1   force =    40.22467873   -8.83821943    0.72157671
     atom    5 type  1   force =    40.73469931    4.27568977   -1.07198889
     atom    6 type  2   force =    -1.87269667   -4.29804450  -16.82114395
     atom    7 type  2   force =     5.72354837    0.62543866   17.01168039
     atom    8 type  3   force =   -53.26660310    0.29252466   -0.52331287
     atom    9 type  3   force =    52.74407676    6.00621877    0.17160894
     atom   10 type  3   force =   -36.26146528   -2.24929599  -23.35716586
     atom   11 type  3   force =   -35.35437166   -0.90756891   22.43503978
     atom   12 type  3   force =   -35.19943893    0.68109252  -22.23257069
     atom   13 type  3   force =   -36.22877716    2.42006763   23.84750777
     atom   14 type  3   force =    36.21820948   -2.48125219  -23.62368191
     atom   15 type  3   force =    35.35001666   -1.14913423   22.65495215
     atom   16 type  3   force =    35.45568418    0.35697748  -21.85834225
     atom   17 type  3   force =    36.53785368    1.87159983   23.05074558
     atom   18 type  4   force =     1.72235021    4.16385929  -13.56702559
     atom   19 type  4   force =   -35.99692517    1.17949848  -25.74135086
     atom   20 type  4   force =   -36.06330050   -1.01402546   25.98744198
     atom   21 type  4   force =    36.24504138    1.76380159  -25.45622947
     atom   22 type  4   force =    36.37168418   -0.31166028   25.43896426
     atom   23 type  5   force =    -4.39507645    1.97819175   -2.21145179
     The local contribution  to forces
     atom    1 type  1   force =     1.50083428    5.18307811  -16.52550085
     atom    2 type  1   force =    40.54089063    6.72729364   -0.68559106
     atom    3 type  1   force =    40.70422131   -7.51723834    2.13845297
     atom    4 type  1   force =   -40.36386810    8.94720196   -0.72989777
     atom    5 type  1   force =   -40.88284872   -4.39111067    1.10611387
     atom    6 type  2   force =     1.76071642    4.24415838   16.80867415
     atom    7 type  2   force =    -4.74878269   -1.37474966  -16.04061595
     atom    8 type  3   force =    53.43641828   -0.34676466    0.52897113
     atom    9 type  3   force =   -52.69675112   -5.72898911   -0.20980616
     atom   10 type  3   force =    36.48638074    2.21822006   23.53243232
     atom   11 type  3   force =    35.58794741    0.86398565  -22.59572813
     atom   12 type  3   force =    35.39937575   -0.61653850   22.35025938
     atom   13 type  3   force =    36.43348651   -2.36090622  -23.99366292
     atom   14 type  3   force =   -36.43455273    2.44106441   23.78288641
     atom   15 type  3   force =   -35.56638879    1.12571231  -22.80079738
     atom   16 type  3   force =   -35.66342459   -0.30959816   22.01202576
     atom   17 type  3   force =   -36.75201866   -1.82536675  -23.22514727
     atom   18 type  4   force =    -1.70152855   -4.24643674   13.63493584
     atom   19 type  4   force =    35.83003967   -1.20035607   25.56323321
     atom   20 type  4   force =    35.89891543    1.04994058  -25.83860721
     atom   21 type  4   force =   -36.07010851   -1.77666897   25.26010812
     atom   22 type  4   force =   -36.22428575    0.30946490  -25.27281953
     atom   23 type  5   force =     3.37502595   -1.33236405    1.13820676
     The core correction contribution to forces
     atom    1 type  1   force =     0.00184437    0.00099230   -0.00590077
     atom    2 type  1   force =    -0.01255386   -0.00478876   -0.00030052
     atom    3 type  1   force =    -0.00750814   -0.00151512   -0.00440763
     atom    4 type  1   force =     0.01209219   -0.00137447    0.00089856
     atom    5 type  1   force =     0.01466630    0.00179483   -0.00195031
     atom    6 type  2   force =    -0.00200741    0.00031436    0.00044306
     atom    7 type  2   force =     0.00055199   -0.00361614   -0.00176278
     atom    8 type  3   force =    -0.03064955    0.00350269    0.00022028
     atom    9 type  3   force =     0.02379557   -0.00102178    0.00014803
     atom   10 type  3   force =    -0.02251127    0.01052375   -0.01775782
     atom   11 type  3   force =    -0.02404808    0.00942257    0.01818276
     atom   12 type  3   force =    -0.02352998   -0.00835040   -0.01523355
     atom   13 type  3   force =    -0.02156581   -0.01033164    0.01630003
     atom   14 type  3   force =     0.02249962    0.00966176   -0.01612678
     atom   15 type  3   force =     0.02480759    0.00778178    0.01888580
     atom   16 type  3   force =     0.02325507   -0.00871819   -0.01690120
     atom   17 type  3   force =     0.02059869   -0.01133910    0.01702932
     atom   18 type  4   force =     0.00026806   -0.00382171    0.00388315
     atom   19 type  4   force =    -0.00956742   -0.00050595   -0.00941124
     atom   20 type  4   force =    -0.00920458    0.00151082    0.00824032
     atom   21 type  4   force =     0.01024198    0.00055671   -0.00990394
     atom   22 type  4   force =     0.00826570    0.00086454    0.00823203
     atom   23 type  5   force =     0.00000000    0.00000000    0.00000000
     The Hubbard contrib.    to forces
     atom    1 type  1   force =     0.00000000    0.00000000    0.00000000
     atom    2 type  1   force =     0.00000000    0.00000000    0.00000000
     atom    3 type  1   force =     0.00000000    0.00000000    0.00000000
     atom    4 type  1   force =     0.00000000    0.00000000    0.00000000
     atom    5 type  1   force =     0.00000000    0.00000000    0.00000000
     atom    6 type  2   force =     0.00000000    0.00000000    0.00000000
     atom    7 type  2   force =     0.00000000    0.00000000    0.00000000
     atom    8 type  3   force =     0.00000000    0.00000000    0.00000000
     atom    9 type  3   force =     0.00000000    0.00000000    0.00000000
     atom   10 type  3   force =     0.00000000    0.00000000    0.00000000
     atom   11 type  3   force =     0.00000000    0.00000000    0.00000000
     atom   12 type  3   force =     0.00000000    0.00000000    0.00000000
     atom   13 type  3   force =     0.00000000    0.00000000    0.00000000
     atom   14 type  3   force =     0.00000000    0.00000000    0.00000000
     atom   15 type  3   force =     0.00000000    0.00000000    0.00000000
     atom   16 type  3   force =     0.00000000    0.00000000    0.00000000
     atom   17 type  3   force =     0.00000000    0.00000000    0.00000000
     atom   18 type  4   force =     0.00000000    0.00000000    0.00000000
     atom   19 type  4   force =     0.00000000    0.00000000    0.00000000
     atom   20 type  4   force =     0.00000000    0.00000000    0.00000000
     atom   21 type  4   force =     0.00000000    0.00000000    0.00000000
     atom   22 type  4   force =     0.00000000    0.00000000    0.00000000
     atom   23 type  5   force =     0.00000000    0.00000000    0.00000000
     The SCF correction term to forces
     atom    1 type  1   force =     0.00902032   -0.00506035   -0.00843419
     atom    2 type  1   force =    -0.00239906   -0.01186369   -0.01153001
     atom    3 type  1   force =    -0.00316401    0.00399843   -0.01073077
     atom    4 type  1   force =     0.00539815   -0.00206553   -0.00685512
     atom    5 type  1   force =    -0.00377742    0.00248426   -0.00322122
     atom    6 type  2   force =     0.00719905   -0.00793464   -0.00663426
     atom    7 type  2   force =     0.00371528    0.02068921   -0.01655681
     atom    8 type  3   force =     0.00012836    0.01162163   -0.01031274
     atom    9 type  3   force =     0.00815780   -0.00349046   -0.01132374
     atom   10 type  3   force =    -0.00326037   -0.01578232    0.00137493
     atom   11 type  3   force =     0.00046072   -0.00372290    0.00314322
     atom   12 type  3   force =    -0.00068870    0.00983586    0.00553842
     atom   13 type  3   force =     0.00648684    0.00092947   -0.00294880
     atom   14 type  3   force =     0.00242013   -0.01228521    0.00328329
     atom   15 type  3   force =     0.00884692   -0.01911973    0.00069511
     atom   16 type  3   force =    -0.00060211    0.00661677   -0.00069664
     atom   17 type  3   force =     0.01032443    0.00902483    0.00416975
     atom   18 type  4   force =     0.00110727    0.01463217   -0.00710995
     atom   19 type  4   force =    -0.00594717    0.00455816    0.00179781
     atom   20 type  4   force =    -0.00403695    0.00016328    0.00834874
     atom   21 type  4   force =     0.00699638    0.00378585    0.00503783
     atom   22 type  4   force =     0.00287872    0.00814874   -0.00100336
     atom   23 type  5   force =     0.00000929    0.00112418   -0.00128968

     Total force =     2.200575     Total SCF correction =     0.062759

     Computing stress (Cartesian axis) and pressure

     negative rho (up, down):  9.082E-01 9.082E-01
          total   stress  (Ry/bohr**3)                   (kbar)     P=      122.70
   0.00091268  -0.00012110   0.00023507          134.26      -17.82       34.58
  -0.00012110   0.00085903  -0.00016998          -17.82      126.37      -25.01
   0.00023507  -0.00016998   0.00073054           34.58      -25.01      107.47

     Entering Dynamics:    iteration =    30
                           time      =   0.0030 pico-seconds

ATOMIC_POSITIONS (angstrom)
Hf            2.6720962927        2.8350421412        6.6040815732
Hf            1.2544891838        1.2943043113        5.0583750034
Hf            1.2568882757        7.3980350570        5.0880902961
Hf            4.0900610042        1.2942942223        5.0584410640
Hf            4.0868267053        7.3983542970        5.0880455040
Nb            2.6720349119        2.8047803301        3.5156149790
Nb            2.6722797342        5.8845663263        6.6349029575
Ta            1.2108172832        4.3491693355        5.0707406530
Ta            4.0156966775        3.9956125045        5.0613227318
Ta            1.3092965116        1.3220826947        2.0583985112
Ta            1.3048445468        1.3163195224        8.0949356061
Ta            1.3060891711        7.3842080631        2.0458912960
Ta            1.3097860035        7.3734291250        8.0863843683
Ta            4.0350585701        1.3220602259        2.0583926164
Ta            4.0395095154        1.3163020384        8.0949431713
Ta            4.0382727063        7.3842114924        2.0458862344
Ta            4.0345695023        7.3734308281        8.0863857403
Zr            2.6722367145        5.8745871135        3.5273094358
Zr            1.2444219293        4.3301711319        1.9985371615
Zr            1.2409266038        4.3623547281        8.1512312849
Zr            4.0999349181        4.3301657959        1.9985551021
Zr            4.1034481205        4.3623446823        8.1512251089
H            11.6645385164       24.4948629273        5.9900389280

     kinetic energy (Ekin) =         560.21513465 Ry
     temperature           =     2680332.54607900 K
     Ekin + Etot (const)   =       -2382.03931261 Ry
     Ions kinetic stress =         9894.01 (kbar)
                                   3590.66        9663.11         524.85
                                   9663.11       26014.28        1410.94
                                    524.85        1410.94          77.11

     Linear momentum :   -0.0000000000    0.0000000000    0.0000000000

     The maximum number of steps has been reached.

     End of molecular dynamics calculation

     diffusion coefficients :
     atom     1   D =       0.00000037 cm^2/s
     atom     2   D =       0.00000036 cm^2/s
     atom     3   D =       0.00000038 cm^2/s
     atom     4   D =       0.00000040 cm^2/s
     atom     5   D =       0.00000043 cm^2/s
     atom     6   D =       0.00000036 cm^2/s
     atom     7   D =       0.00000040 cm^2/s
     atom     8   D =       0.00000038 cm^2/s
     atom     9   D =       0.00072483 cm^2/s
     atom    10   D =       0.00000037 cm^2/s
     atom    11   D =       0.00000037 cm^2/s
     atom    12   D =       0.00000041 cm^2/s
     atom    13   D =       0.00000041 cm^2/s
     atom    14   D =       0.00000037 cm^2/s
     atom    15   D =       0.00000037 cm^2/s
     atom    16   D =       0.00000041 cm^2/s
     atom    17   D =       0.00000041 cm^2/s
     atom    18   D =       0.00000040 cm^2/s
     atom    19   D =       0.00000037 cm^2/s
     atom    20   D =       0.00000038 cm^2/s
     atom    21   D =       0.00000045 cm^2/s
     atom    22   D =       0.00000046 cm^2/s
     atom    23   D =       2.08975558 cm^2/s

     < D > =       0.09089081 cm^2/s

     Writing all to output data dir outdir/pwscf.save/

     General routines

     Parallel routines

   This run was terminated on:  16:49:27  12Jun2023

   JOB DONE.