     Program PWSCF v.7.2 starts on  6Jun2023 at  2:30:36

     Reading input from md_Hf5Nb2Ta10Zr5H_15steps_1000eV_relaxed_slab.in
Warning: card &CELL ignored
Warning: card / ignored

     Current dimensions of program PWSCF are:
     Max number of different atomic species (ntypx) = 10
     Max number of k-points (npk) =  40000
     Max angular momentum in pseudopotentials (lmaxx) =  4

     File outdir/pwscf.update deleted, as requested

     File outdir/pwscf.md deleted, as requested

     gamma-point specific algorithms are used

     R & G space division:  proc/nbgrp/npool/nimage =      12
     Subspace diagonalization in iterative solution of the eigenvalue problem:
     one sub-group per band group will be used

     Using Slab Decomposition

     bravais-lattice index     =            0
     lattice parameter (alat)  =      15.7603  a.u.
     unit-cell volume          =    4958.3580 (a.u.)^3
     number of atoms/cell      =           23
     number of atomic types    =            5
     number of electrons       =       277.00
     number of Kohn-Sham states=          167
     kinetic-energy cutoff     =     120.0000  Ry
     charge density cutoff     =     480.0000  Ry
     scf convergence threshold =      1.0E-03
     mixing beta               =       0.7000
     number of iterations used =            8  TF        mixing
     energy convergence thresh.=      0.0E+00
     force convergence thresh. =      0.0E+00
     Exchange-correlation=  SLA  PW   PBX  PBC
                           (   1   4   3   4   0   0   0)
     nstep                     =           15

     celldm(1)=  15.760315  celldm(2)=   0.000000  celldm(3)=   0.000000
     celldm(4)=   0.000000  celldm(5)=   0.000000  celldm(6)=   0.000000

     crystal axes: (cart. coord. in units of alat)
               a(1) = (   1.000000   0.000000   0.000000 )
               a(2) = (   0.000000   1.040767   0.000000 )
               a(3) = (   0.000000   0.000000   1.216997 )

     reciprocal axes: (cart. coord. in units 2 pi/alat)
               b(1) = (  1.000000  0.000000  0.000000 )
               b(2) = (  0.000000  0.960830  0.000000 )
               b(3) = (  0.000000  0.000000  0.821695 )

     PseudoPot. # 1 for Hf read from file:
     q-e/pseudo/hf_pbe_v1.uspp.F.UPF
     MD5 check sum: 8ee9378dfe14276e333edf04c5e4aa26
     Pseudo is Ultrasoft + core correction, Zval = 12.0
     Generated by new atomic code, or converted to UPF format
     Using radial grid of  921 points,  8 beta functions with:
                l(1) =   0
                l(2) =   0
                l(3) =   0
                l(4) =   1
                l(5) =   1
                l(6) =   2
                l(7) =   2
                l(8) =   3
     Q(r) pseudized with  6 coefficients,  rinner =    1.200   1.200   1.200
                                                       1.200   1.200   1.200
                                                       1.200

     PseudoPot. # 2 for Nb read from file:
     q-e/pseudo/nb_pbe_v1.uspp.F.UPF
     MD5 check sum: 573aab8a2fa660278ed4a62cd769473f
     Pseudo is Ultrasoft + core correction, Zval = 13.0
     Generated by new atomic code, or converted to UPF format
     Using radial grid of  887 points,  6 beta functions with:
                l(1) =   0
                l(2) =   0
                l(3) =   1
                l(4) =   1
                l(5) =   2
                l(6) =   2
     Q(r) pseudized with  6 coefficients,  rinner =    1.000   1.000   1.000
                                                       1.000   1.000

     PseudoPot. # 3 for Ta read from file:
     q-e/pseudo/ta_pbe_v1.uspp.F.UPF
     MD5 check sum: f8bbe9446314a3b8ea5d9f3e3836c939
     Pseudo is Ultrasoft + core correction, Zval = 13.0
     Generated by new atomic code, or converted to UPF format
     Using radial grid of  921 points,  7 beta functions with:
                l(1) =   0
                l(2) =   0
                l(3) =   1
                l(4) =   1
                l(5) =   2
                l(6) =   2
                l(7) =   3
     Q(r) pseudized with  6 coefficients,  rinner =    1.300   1.300   1.300
                                                       1.300   1.300   1.300
                                                       1.300

     PseudoPot. # 4 for Zr read from file:
     q-e/pseudo/zr_pbe_v1.uspp.F.UPF
     MD5 check sum: 5db81b1e868ab7776c4564c113de050b
     Pseudo is Ultrasoft + core correction, Zval = 12.0
     Generated by new atomic code, or converted to UPF format
     Using radial grid of  887 points,  6 beta functions with:
                l(1) =   0
                l(2) =   0
                l(3) =   1
                l(4) =   1
                l(5) =   2
                l(6) =   2
     Q(r) pseudized with  6 coefficients,  rinner =    1.200   1.200   1.200
                                                       1.200   1.200

     PseudoPot. # 5 for H  read from file:
     q-e/pseudo/h_pbe_v1.4.uspp.F.UPF
     MD5 check sum: 761ae9a214b05c3daf00ab9f6b793d6f
     Pseudo is Ultrasoft, Zval =  1.0
     Generated by new atomic code, or converted to UPF format
     Using radial grid of  615 points,  2 beta functions with:
                l(1) =   0
                l(2) =   0
     Q(r) pseudized with  8 coefficients,  rinner =    0.700

     atomic species   valence    mass     pseudopotential
        Hf            12.00   178.49000     Hf( 1.00)
        Nb            13.00    92.90637     Nb( 1.00)
        Ta            13.00   180.94788     Ta( 1.00)
        Zr            12.00    91.22400     Zr( 1.00)
        H              1.00     2.01400     H ( 1.00)

     Starting magnetic structure
     atomic species   magnetization
        Hf           0.000
        Nb           0.000
        Ta           0.000
        Zr           0.000
        H            0.000

     No symmetry found

   Cartesian axes

     site n.     atom                  positions (alat units)
         1           Hf  tau(   1) = (   0.3201439   0.3389836   0.7918423  )
         2           Hf  tau(   2) = (   0.1502387   0.1542307   0.6065307  )
         3           Hf  tau(   3) = (   0.1505380   0.8860677   0.6100801  )
         4           Hf  tau(   4) = (   0.4900491   0.1542307   0.6065307  )
         5           Hf  tau(   5) = (   0.4897498   0.8860677   0.6100801  )
         6           Nb  tau(   6) = (   0.3201439   0.3353634   0.4215328  )
         7           Nb  tau(   7) = (   0.3201439   0.7046018   0.7955633  )
         8           Ta  tau(   8) = (   0.1450088   0.5204950   0.6080487  )
         9           Ta  tau(   9) = (   0.4952790   0.5204950   0.6080487  )
        10           Ta  tau(  10) = (   0.1567449   0.1575687   0.2468560  )
        11           Ta  tau(  11) = (   0.1562096   0.1568814   0.9705731  )
        12           Ta  tau(  12) = (   0.1563561   0.8843917   0.2453522  )
        13           Ta  tau(  13) = (   0.1567999   0.8831035   0.9695447  )
        14           Ta  tau(  14) = (   0.4835429   0.1575687   0.2468560  )
        15           Ta  tau(  15) = (   0.4840781   0.1568814   0.9705731  )
        16           Ta  tau(  16) = (   0.4839317   0.8843917   0.2453522  )
        17           Ta  tau(  17) = (   0.4834879   0.8831035   0.9695447  )
        18           Zr  tau(  18) = (   0.3201439   0.7033916   0.4229477  )
        19           Zr  tau(  19) = (   0.1491408   0.5182348   0.2398082  )
        20           Zr  tau(  20) = (   0.1487273   0.5220772   0.9771889  )
        21           Zr  tau(  21) = (   0.4911469   0.5182348   0.2398082  )
        22           Zr  tau(  22) = (   0.4915605   0.5220772   0.9771889  )
        23           H   tau(  23) = (   0.6751351   0.5203837   0.6081751  )

     number of k points=     1  Gaussian smearing, width (Ry)=  0.0220
                       cart. coord. in units 2pi/alat
        k(    1) = (   0.0000000   0.0000000   0.0000000), wk =   1.0000000

     Check: negative core charge=   -0.000002
     Generating pointlists ...
     new r_m :   0.1251 (alat units)  1.9717 (a.u.) for type    1
     new r_m :   0.1229 (alat units)  1.9374 (a.u.) for type    2
     new r_m :   0.0742 (alat units)  1.1693 (a.u.) for type    3
     new r_m :   0.1245 (alat units)  1.9625 (a.u.) for type    4
     new r_m :   0.0742 (alat units)  1.1693 (a.u.) for type    5

     Initial potential from superposition of free atoms

     starting charge     266.9726, renormalised to     277.0000

     negative rho (up, down):  9.206E-01 9.206E-01
     Starting wfcs are  287 randomized atomic wfcs

     Self-consistent Calculation

     iteration #  1     ecut=   120.00 Ry     beta= 0.70
     Davidson diagonalization with overlap
     ethr =  1.00E-02,  avg # of iterations =  3.0

     negative rho (up, down):  9.825E-01 9.822E-01

     total energy              =   -2932.09787611 Ry
     estimated scf accuracy    <     291.81665252 Ry

     total magnetization       =    -0.00 Bohr mag/cell
     absolute magnetization    =     0.08 Bohr mag/cell

[...]

     Magnetic moment per site  (integrated on atomic sphere of radius R)
     atom   1 (R=0.125)  charge=  9.4607  magn= -0.0000
     atom   2 (R=0.125)  charge=  9.0586  magn=  0.0003
     atom   3 (R=0.125)  charge=  9.0582  magn=  0.0000
     atom   4 (R=0.125)  charge=  9.0565  magn=  0.0003
     atom   5 (R=0.125)  charge=  9.0561  magn= -0.0002
     atom   6 (R=0.123)  charge= 10.3453  magn= -0.0000
     atom   7 (R=0.123)  charge= 10.3469  magn= -0.0001
     atom   8 (R=0.074)  charge=  5.2336  magn=  0.0001
     atom   9 (R=0.074)  charge=  5.2523  magn=  0.0001
     atom  10 (R=0.074)  charge=  5.2165  magn=  0.0002
     atom  11 (R=0.074)  charge=  5.2160  magn=  0.0001
     atom  12 (R=0.074)  charge=  5.2167  magn= -0.0002
     atom  13 (R=0.074)  charge=  5.2164  magn= -0.0003
     atom  14 (R=0.074)  charge=  5.2164  magn=  0.0004
     atom  15 (R=0.074)  charge=  5.2162  magn=  0.0001
     atom  16 (R=0.074)  charge=  5.2177  magn= -0.0005
     atom  17 (R=0.074)  charge=  5.2156  magn= -0.0003
     atom  18 (R=0.125)  charge=  9.4559  magn= -0.0001
     atom  19 (R=0.125)  charge=  9.0006  magn=  0.0016
     atom  20 (R=0.125)  charge=  8.9992  magn= -0.0017
     atom  21 (R=0.125)  charge=  8.9970  magn=  0.0014
     atom  22 (R=0.125)  charge=  8.9971  magn= -0.0014
     atom  23 (R=0.074)  charge=  0.8828  magn=  0.0000

     End of self-consistent calculation

 ------ SPIN UP ------------

          k = 0.0000 0.0000 0.0000 ( 55051 PWs)   bands (ev):

   -59.4835 -59.4792 -59.4383 -59.4341 -59.4051 -59.4005 -59.3613 -59.3568
   -59.2289 -58.7539 -53.0943 -53.0370 -52.9704 -52.9136 -51.3633 -44.9047
   -44.9022 -40.3153 -40.3042 -40.2129 -40.2093 -38.4707 -26.4831 -26.4774
   -26.3989 -26.3897 -26.3024 -26.2977 -26.1788 -26.1696 -26.0539 -26.0250
   -25.9890 -25.9612 -25.9542 -25.9266 -25.9161 -25.8665 -25.8562 -25.8353
   -25.7983 -25.6685 -25.6644 -25.6535 -25.6450 -25.5915 -25.5874 -25.5689
   -25.5657 -25.5010 -25.4764 -25.4288 -22.8717 -22.6621 -22.3480 -22.2720
   -22.0102 -21.8682 -21.8452 -21.7436 -21.6277 -21.5586 -21.5419 -21.3266
[...]
     8.5217   8.5595   8.6052   8.6319   8.6369   8.8339   8.8640   8.9282
     8.9472   8.9729   9.2204   9.2629   9.3724   9.4098   9.5520   9.6200
     9.6462   9.6557   9.6819   9.6863   9.7474   9.8629   9.9869  10.0270
    10.1536  10.2396  10.4217  10.4340  10.4444  10.5320  10.5839

     the Fermi energy is     8.5909 ev

!    total energy              =   -2943.06336200 Ry
     estimated scf accuracy    <       0.00020565 Ry
     smearing contrib. (-TS)   =      -0.10161362 Ry
     internal energy E=F+TS    =   -2942.96174838 Ry

     total magnetization       =    -0.00 Bohr mag/cell
     absolute magnetization    =     0.00 Bohr mag/cell

     convergence has been achieved in   5 iterations

     negative rho (up, down):  9.080E-01 9.080E-01

     Forces acting on atoms (cartesian axes, Ry/au):

     atom    1 type  1   force =     0.00465667   -0.02471406    0.01351369
     atom    2 type  1   force =    -0.12015563   -0.01504788   -0.00456290
     atom    3 type  1   force =    -0.11886309    0.01278406    0.00162610
     atom    4 type  1   force =     0.11934458   -0.01748052   -0.00394255
     atom    5 type  1   force =     0.11791034    0.01487538    0.00099429
     atom    6 type  2   force =     0.00584280   -0.01495224    0.00577747
     atom    7 type  2   force =     0.00598073    0.01211495   -0.00381766
     atom    8 type  3   force =    -0.19228616    0.00208736   -0.00300218
     atom    9 type  3   force =     0.13989153    0.00272786   -0.00303995
     atom   10 type  3   force =    -0.02432788   -0.03004983   -0.05789515
     atom   11 type  3   force =    -0.02199060   -0.03357076    0.05587341
     atom   12 type  3   force =    -0.01876369    0.03457201   -0.05252708
     atom   13 type  3   force =    -0.01947030    0.02821496    0.05921215
     atom   14 type  3   force =     0.02429043   -0.03098126   -0.05963790
     atom   15 type  3   force =     0.02227744   -0.03522034    0.05817953
     atom   16 type  3   force =     0.01897226    0.03615479   -0.05499510
     atom   17 type  3   force =     0.01970049    0.02920432    0.06101492
     atom   18 type  4   force =     0.00571111    0.02712726   -0.01813641
     atom   19 type  4   force =    -0.13481643   -0.00494860   -0.11635046
     atom   20 type  4   force =    -0.13831840    0.00601980    0.11840007
     atom   21 type  4   force =     0.13313216   -0.00428513   -0.11558995
     atom   22 type  4   force =     0.13619578    0.00545176    0.11791571
     atom   23 type  5   force =     0.03508585   -0.00008388    0.00098995
     The non-local contrib.  to forces
     atom    1 type  1   force =     0.00421908   -0.02223699    0.03817084
     atom    2 type  1   force =    -0.26152814   -0.15791003    0.01655060
     atom    3 type  1   force =    -0.25530502    0.15356646   -0.02781331
     atom    4 type  1   force =     0.25252315   -0.16223502    0.01685421
     atom    5 type  1   force =     0.24640312    0.15767140   -0.02838595
     atom    6 type  2   force =     0.00517275   -0.06262980   -0.06688131
     atom    7 type  2   force =     0.00607661    0.07253289    0.05983079
     atom    8 type  3   force =    -0.15549365    0.00092789   -0.00516418
     atom    9 type  3   force =     0.31046594   -0.00077690   -0.00341875
     atom   10 type  3   force =    -0.21510772    0.00610641   -0.21239487
     atom   11 type  3   force =    -0.21969286    0.01054611    0.20180076
     atom   12 type  3   force =    -0.19890919   -0.02139161   -0.18647296
     atom   13 type  3   force =    -0.21032248   -0.00744065    0.21173103
     atom   14 type  3   force =     0.21302634    0.00586865   -0.21121350
     atom   15 type  3   force =     0.21680073    0.00847367    0.20167492
     atom   16 type  3   force =     0.19743520   -0.01983376   -0.18583742
     atom   17 type  3   force =     0.20853927   -0.00696699    0.21065790
     atom   18 type  4   force =     0.00528288    0.07013869   -0.06685246
     atom   19 type  4   force =     0.06451035    0.00730231    0.06521692
     atom   20 type  4   force =     0.06071353   -0.00908977   -0.06018388
     atom   21 type  4   force =    -0.06688274    0.00750785    0.05782535
     atom   22 type  4   force =    -0.06251855   -0.00921572   -0.05212890
     atom   23 type  5   force =     0.02152407    0.00022428   -0.00022426
     The ionic contribution  to forces
     atom    1 type  1   force =     0.08897356   -4.67351063   14.40156251
     atom    2 type  1   force =   -34.31615151   -6.35935314    0.77552432
     atom    3 type  1   force =   -34.30390233    6.33845209   -0.71397473
     atom    4 type  1   force =    34.39486704   -6.27412894    0.77673989
     atom    5 type  1   force =    34.38045658    6.25663637   -0.71323705
     atom    6 type  2   force =     0.09254923   -3.63319251  -14.33355127
     atom    7 type  2   force =     0.09285186    3.67335274   14.36248593
     atom    8 type  3   force =   -45.03025359    0.08572727   -0.08242576
     atom    9 type  3   force =    45.76686644    0.07788943   -0.07312887
     atom   10 type  3   force =   -31.01642190   -2.17515604  -23.67353619
     atom   11 type  3   force =   -30.08350460   -0.92423730   22.67770266
     atom   12 type  3   force =   -30.20503720    0.86899346  -22.72308558
     atom   13 type  3   force =   -30.99219576    2.26235516   23.65634693
     atom   14 type  3   force =    31.04377156   -2.14574356  -23.63999191
     atom   15 type  3   force =    30.11176075   -0.89447153   22.64370939
     atom   16 type  3   force =    30.23164555    0.84116350  -22.69109744
     atom   17 type  3   force =    31.01958247    2.23295389   23.62308280
     atom   18 type  4   force =     0.08533905    4.43494928  -14.25896666
     atom   19 type  4   force =   -30.91768600    0.96163929  -26.22044881
     atom   20 type  4   force =   -30.88307978   -0.95389110   26.20646673
     atom   21 type  4   force =    30.98724975    0.96149674  -26.12992288
     atom   22 type  4   force =    30.95536861   -0.95515389   26.11228553
     atom   23 type  5   force =    -1.50304975   -0.00677057    0.01746047
     The local contribution  to forces
     atom    1 type  1   force =    -0.09223048    4.67015239  -14.43125978
     atom    2 type  1   force =    34.46974644    6.50461947   -0.80433167
     atom    3 type  1   force =    34.45257446   -6.48195785    0.73840148
     atom    4 type  1   force =   -34.54362578    6.41630530   -0.80499604
     atom    5 type  1   force =   -34.52437924   -6.39728677    0.73776578
     atom    6 type  2   force =    -0.09739896    3.67618001   14.39680842
     atom    7 type  2   force =    -0.09815288   -3.73288349  -14.43075022
     atom    8 type  3   force =    45.01189062   -0.08532902    0.07966842
     atom    9 type  3   force =   -45.99233423   -0.07483428    0.06840417
     atom   10 type  3   force =    31.22910938    2.12538806   23.84199160
     atom   11 type  3   force =    30.30524076    0.87188169  -22.83778483
     atom   12 type  3   force =    30.40696432   -0.79890995   22.87037645
     atom   13 type  3   force =    31.20492994   -2.21973021  -23.82244309
     atom   14 type  3   force =   -31.25620370    2.09404729   23.80480701
     atom   15 type  3   force =   -30.33201961    0.84214572  -22.80083523
     atom   16 type  3   force =   -30.43379189   -0.77050091   22.83448770
     atom   17 type  3   force =   -31.23225109   -2.18874216  -23.78570848
     atom   18 type  4   force =    -0.08996426   -4.47211741   14.29759120
     atom   19 type  4   force =    30.72625758   -0.97408649   26.04714754
     atom   20 type  4   force =    30.69481475    0.96886313  -26.03593803
     atom   21 type  4   force =   -30.79851525   -0.97326357   25.96090813
     atom   22 type  4   force =   -30.77067537    0.96951636  -25.94660625
     atom   23 type  5   force =     1.51891924    0.00643549   -0.01761367
     The core correction contribution to forces
     atom    1 type  1   force =    -0.00068982    0.00286347   -0.00065034
     atom    2 type  1   force =    -0.01272217   -0.00173176    0.00111535
     atom    3 type  1   force =    -0.01283623    0.00248529   -0.00174452
     atom    4 type  1   force =     0.01282626   -0.00125631    0.00096436
     atom    5 type  1   force =     0.01290299    0.00207997   -0.00168362
     atom    6 type  2   force =    -0.00012362    0.00271514    0.00248365
     atom    7 type  2   force =    -0.00016522   -0.00327410   -0.00198529
     atom    8 type  3   force =    -0.01863841    0.00015619   -0.00036596
     atom    9 type  3   force =     0.03349948    0.00009505   -0.00025638
     atom   10 type  3   force =    -0.02342768    0.00983341   -0.01473607
     atom   11 type  3   force =    -0.02475361    0.01077029    0.01534034
     atom   12 type  3   force =    -0.02291555   -0.01051076   -0.01426468
     atom   13 type  3   force =    -0.02298828   -0.00955994    0.01519819
     atom   14 type  3   force =     0.02263869    0.00878609   -0.01588172
     atom   15 type  3   force =     0.02415293    0.00935712    0.01664886
     atom   16 type  3   force =     0.02241406   -0.00911371   -0.01554348
     atom   17 type  3   force =     0.02241854   -0.00844092    0.01646703
     atom   18 type  4   force =    -0.00023305   -0.00357415    0.00299133
     atom   19 type  4   force =    -0.01026465    0.00017868   -0.00897515
     atom   20 type  4   force =    -0.01019812    0.00008208    0.00877140
     atom   21 type  4   force =     0.01021958    0.00016526   -0.00865513
     atom   22 type  4   force =     0.01011594    0.00009647    0.00843022
     atom   23 type  5   force =     0.00000000    0.00000000    0.00000000
     The Hubbard contrib.    to forces
     atom    1 type  1   force =     0.00000000    0.00000000    0.00000000
     atom    2 type  1   force =     0.00000000    0.00000000    0.00000000
     atom    3 type  1   force =     0.00000000    0.00000000    0.00000000
     atom    4 type  1   force =     0.00000000    0.00000000    0.00000000
     atom    5 type  1   force =     0.00000000    0.00000000    0.00000000
     atom    6 type  2   force =     0.00000000    0.00000000    0.00000000
     atom    7 type  2   force =     0.00000000    0.00000000    0.00000000
     atom    8 type  3   force =     0.00000000    0.00000000    0.00000000
     atom    9 type  3   force =     0.00000000    0.00000000    0.00000000
     atom   10 type  3   force =     0.00000000    0.00000000    0.00000000
     atom   11 type  3   force =     0.00000000    0.00000000    0.00000000
     atom   12 type  3   force =     0.00000000    0.00000000    0.00000000
     atom   13 type  3   force =     0.00000000    0.00000000    0.00000000
     atom   14 type  3   force =     0.00000000    0.00000000    0.00000000
     atom   15 type  3   force =     0.00000000    0.00000000    0.00000000
     atom   16 type  3   force =     0.00000000    0.00000000    0.00000000
     atom   17 type  3   force =     0.00000000    0.00000000    0.00000000
     atom   18 type  4   force =     0.00000000    0.00000000    0.00000000
     atom   19 type  4   force =     0.00000000    0.00000000    0.00000000
     atom   20 type  4   force =     0.00000000    0.00000000    0.00000000
     atom   21 type  4   force =     0.00000000    0.00000000    0.00000000
     atom   22 type  4   force =     0.00000000    0.00000000    0.00000000
     atom   23 type  5   force =     0.00000000    0.00000000    0.00000000
     The SCF correction term to forces
     atom    1 type  1   force =     0.00000000   -0.00000000    0.00000000
     atom    2 type  1   force =    -0.00000000   -0.00000000    0.00000000
     atom    3 type  1   force =     0.00000000    0.00000000    0.00000000
     atom    4 type  1   force =     0.00000000    0.00000000    0.00000000
     atom    5 type  1   force =     0.00000000   -0.00000000    0.00000000
     atom    6 type  2   force =     0.00000000    0.00000000    0.00000000
     atom    7 type  2   force =     0.00000000    0.00000000    0.00000000
     atom    8 type  3   force =    -0.00000000    0.00000000    0.00000000
     atom    9 type  3   force =     0.00000000    0.00000000    0.00000000
     atom   10 type  3   force =     0.00000000    0.00000000    0.00000000
     atom   11 type  3   force =     0.00000000   -0.00000000   -0.00000000
     atom   12 type  3   force =     0.00000000   -0.00000000    0.00000000
     atom   13 type  3   force =     0.00000000    0.00000000   -0.00000000
     atom   14 type  3   force =     0.00052415    0.00608145    0.00203485
     atom   15 type  3   force =     0.00104924   -0.00070413   -0.00362578
     atom   16 type  3   force =     0.00073594   -0.00553913    0.00238818
     atom   17 type  3   force =     0.00087792    0.00042168   -0.00409170
     atom   18 type  4   force =     0.00475310   -0.00224795    0.00649282
     atom   19 type  4   force =     0.00183290    0.00003880    0.00010167
     atom   20 type  4   force =    -0.00110218    0.00007665   -0.00132352
     atom   21 type  4   force =     0.00052743   -0.00017023    0.00364721
     atom   22 type  4   force =     0.00337176    0.00022974   -0.00467225
     atom   23 type  5   force =    -0.00284110    0.00004810    0.00076005

     Total force =     0.388232     Total SCF correction =     0.015570

     Entering Dynamics:    iteration =    15
                           time      =   0.0030 pico-seconds

ATOMIC_POSITIONS (angstrom)
Hf            2.6699999570        2.8271230292        6.6039642186    0   0   0
Hf            1.2529906802        1.2862841814        5.0584662261    0   0   0
Hf            1.2554868986        7.3898042948        5.0880677674    0   0   0
Hf            4.0870092338        1.2862841814        5.0584662261    0   0   0
Hf            4.0845130154        7.3898042948        5.0880677674    0   0   0
Nb            2.6699999570        2.7969306055        3.5155832167    0   0   0
Nb            2.6699999570        5.8763786763        6.6349979432    0   0   0
Ta            1.2093730560        4.3409278516        5.0711258323    0   0   0
Ta            4.1306268580        4.3409278516        5.0711258323    0   0   0
Ta            1.3072526841        1.3141225894        2.0587791101    0   0   0
Ta            1.3027883142        1.3083911360        8.0945792024    0   0   0
Ta            1.3040096221        7.3758261241        2.0462371798    0   0   0
Ta            1.3077107984        7.3650829484        8.0860022208    0   0   0
Ta            4.0329004686        1.3139478906        2.0584114358
Ta            4.0373608183        1.3081847547        8.0949272415
Ta            4.0361166433        7.3760326348        2.0458990165
Ta            4.0324126436        7.3652528387        8.0863660751
Zr            2.6700378146        5.8665848693        3.5272143053
Zr            1.2420987836        4.3220160794        1.9985369006
Zr            1.2386019869        4.3541981521        8.1512406697
Zr            4.0979022307        4.3220107866        1.9985608882
Zr            4.1013996347        4.3542017372        8.1512130064
H             7.5742970109        4.3172241738        5.0993346696

     kinetic energy (Ekin) =          18.25742339 Ry
     temperature           =      192174.61082219 K
     Ekin + Etot (const)   =       -2924.80593861 Ry

     The maximum number of steps has been reached.

     End of molecular dynamics calculation

     diffusion coefficients :
     atom     1   D =       0.00000000 cm^2/s
     atom     2   D =       0.00000000 cm^2/s
     atom     3   D =       0.00000000 cm^2/s
     atom     4   D =       0.00000000 cm^2/s
     atom     5   D =       0.00000000 cm^2/s
     atom     6   D =       0.00000000 cm^2/s
     atom     7   D =       0.00000000 cm^2/s
     atom     8   D =       0.00000000 cm^2/s
     atom     9   D =       0.00000000 cm^2/s
     atom    10   D =       0.00000000 cm^2/s
     atom    11   D =       0.00000000 cm^2/s
     atom    12   D =       0.00000000 cm^2/s
     atom    13   D =       0.00000000 cm^2/s
     atom    14   D =       0.00000000 cm^2/s
     atom    15   D =       0.00000000 cm^2/s
     atom    16   D =       0.00000000 cm^2/s
     atom    17   D =       0.00000000 cm^2/s
     atom    18   D =       0.00000000 cm^2/s
     atom    19   D =       0.00000003 cm^2/s
     atom    20   D =       0.00000003 cm^2/s
     atom    21   D =       0.00000003 cm^2/s
     atom    22   D =       0.00000003 cm^2/s
     atom    23   D =       0.02066582 cm^2/s

     < D > =       0.00206659 cm^2/s

     Writing all to output data dir outdir/pwscf.save/

     General routines

     Parallel routines

   This run was terminated on:   3:42:57   6Jun2023

   JOB DONE.