     Program PWSCF v.7.2 starts on 11Jun2023 at 19:52:14

     Reading input from md_data/md_Hf5Nb2Ta10Zr5H_20steps_100eV_incident45_polar180.in
Warning: card &CELL ignored
Warning: card / ignored

     Current dimensions of program PWSCF are:
     Max number of different atomic species (ntypx) = 10
     Max number of k-points (npk) =  40000
     Max angular momentum in pseudopotentials (lmaxx) =  4

     File outdir/pwscf.md deleted, as requested

     gamma-point specific algorithms are used

     R & G space division:  proc/nbgrp/npool/nimage =      42
     Subspace diagonalization in iterative solution of the eigenvalue problem:
     one sub-group per band group will be used

     Using Slab Decomposition

     bravais-lattice index     =            0
     lattice parameter (alat)  =      16.1383  a.u.
     unit-cell volume          =    5077.2634 (a.u.)^3
     number of atoms/cell      =           23
     number of atomic types    =            5
     number of electrons       =       277.00
     number of Kohn-Sham states=          167
     kinetic-energy cutoff     =     120.0000  Ry
     charge density cutoff     =     480.0000  Ry
     scf convergence threshold =      1.0E-03
     mixing beta               =       0.7000
     number of iterations used =            8  TF        mixing
     energy convergence thresh.=      0.0E+00
     force convergence thresh. =      0.0E+00
     Exchange-correlation=  SLA  PW   PBX  PBC
                           (   1   4   3   4   0   0   0)
     nstep                     =           20

     celldm(1)=  16.138261  celldm(2)=   0.000000  celldm(3)=   0.000000
     celldm(4)=   0.000000  celldm(5)=   0.000000  celldm(6)=   0.000000

     crystal axes: (cart. coord. in units of alat)
               a(1) = (   1.000000   0.000000   0.000000 )
               a(2) = (   0.000000   1.016393   0.000000 )
               a(3) = (   0.000000   0.000000   1.188496 )

     reciprocal axes: (cart. coord. in units 2 pi/alat)
               b(1) = (  1.000000  0.000000  0.000000 )
               b(2) = (  0.000000  0.983871  0.000000 )
               b(3) = (  0.000000  0.000000  0.841400 )

     PseudoPot. # 1 for Hf read from file:
     q-e/pseudo/hf_pbe_v1.uspp.F.UPF
     MD5 check sum: 8ee9378dfe14276e333edf04c5e4aa26
     Pseudo is Ultrasoft + core correction, Zval = 12.0
     Generated by new atomic code, or converted to UPF format
     Using radial grid of  921 points,  8 beta functions with:
                l(1) =   0
                l(2) =   0
                l(3) =   0
                l(4) =   1
                l(5) =   1
                l(6) =   2
                l(7) =   2
                l(8) =   3
     Q(r) pseudized with  6 coefficients,  rinner =    1.200   1.200   1.200
                                                       1.200   1.200   1.200
                                                       1.200

     PseudoPot. # 2 for Nb read from file:
     q-e/pseudo/nb_pbe_v1.uspp.F.UPF
     MD5 check sum: 573aab8a2fa660278ed4a62cd769473f
     Pseudo is Ultrasoft + core correction, Zval = 13.0
     Generated by new atomic code, or converted to UPF format
     Using radial grid of  887 points,  6 beta functions with:
                l(1) =   0
                l(2) =   0
                l(3) =   1
                l(4) =   1
                l(5) =   2
                l(6) =   2
     Q(r) pseudized with  6 coefficients,  rinner =    1.000   1.000   1.000
                                                       1.000   1.000

     PseudoPot. # 3 for Ta read from file:
     q-e/pseudo/ta_pbe_v1.uspp.F.UPF
     MD5 check sum: f8bbe9446314a3b8ea5d9f3e3836c939
     Pseudo is Ultrasoft + core correction, Zval = 13.0
     Generated by new atomic code, or converted to UPF format
     Using radial grid of  921 points,  7 beta functions with:
                l(1) =   0
                l(2) =   0
                l(3) =   1
                l(4) =   1
                l(5) =   2
                l(6) =   2
                l(7) =   3
     Q(r) pseudized with  6 coefficients,  rinner =    1.300   1.300   1.300
                                                       1.300   1.300   1.300
                                                       1.300

     PseudoPot. # 4 for Zr read from file:
     q-e/pseudo/zr_pbe_v1.uspp.F.UPF
     MD5 check sum: 5db81b1e868ab7776c4564c113de050b
     Pseudo is Ultrasoft + core correction, Zval = 12.0
     Generated by new atomic code, or converted to UPF format
     Using radial grid of  887 points,  6 beta functions with:
                l(1) =   0
                l(2) =   0
                l(3) =   1
                l(4) =   1
                l(5) =   2
                l(6) =   2
     Q(r) pseudized with  6 coefficients,  rinner =    1.200   1.200   1.200
                                                       1.200   1.200

     PseudoPot. # 5 for H  read from file:
     q-e/pseudo/h_pbe_v1.4.uspp.F.UPF
     MD5 check sum: 761ae9a214b05c3daf00ab9f6b793d6f
     Pseudo is Ultrasoft, Zval =  1.0
     Generated by new atomic code, or converted to UPF format
     Using radial grid of  615 points,  2 beta functions with:
                l(1) =   0
                l(2) =   0
     Q(r) pseudized with  8 coefficients,  rinner =    0.700

     atomic species   valence    mass     pseudopotential
        Hf            12.00   178.49000     Hf( 1.00)
        Nb            13.00    92.90637     Nb( 1.00)
        Ta            13.00   180.94788     Ta( 1.00)
        Zr            12.00    91.22400     Zr( 1.00)
        H              1.00     2.01400     H ( 1.00)

     Starting magnetic structure
     atomic species   magnetization
        Hf           0.000
        Nb           0.000
        Ta           0.000
        Zr           0.000
        H            0.000

     No symmetry found

   Cartesian axes

     site n.     atom                  positions (alat units)
         1           Hf  tau(   1) = (   0.3126464   0.3310449   0.7732979  )
         2           Hf  tau(   2) = (   0.1467202   0.1506188   0.5923263  )
         3           Hf  tau(   3) = (   0.1470125   0.8653167   0.5957925  )
         4           Hf  tau(   4) = (   0.4785725   0.1506188   0.5923263  )
         5           Hf  tau(   5) = (   0.4782802   0.8653167   0.5957925  )
         6           Nb  tau(   6) = (   0.3126464   0.3275094   0.4116608  )
         7           Nb  tau(   7) = (   0.3126464   0.6881006   0.7769319  )
         8           Ta  tau(   8) = (   0.1416128   0.5083054   0.5938087  )
         9           Ta  tau(   9) = (   0.4836800   0.5083054   0.5938087  )
        10           Ta  tau(  10) = (   0.1530741   0.1538785   0.2410748  )
        11           Ta  tau(  11) = (   0.1525513   0.1532074   0.9478430  )
        12           Ta  tau(  12) = (   0.1526943   0.8636799   0.2396062  )
        13           Ta  tau(  13) = (   0.1531277   0.8624219   0.9468387  )
        14           Ta  tau(  14) = (   0.4722187   0.1538785   0.2410748  )
        15           Ta  tau(  15) = (   0.4727414   0.1532074   0.9478430  )
        16           Ta  tau(  16) = (   0.4725984   0.8636799   0.2396062  )
        17           Ta  tau(  17) = (   0.4721650   0.8624219   0.9468387  )
        18           Zr  tau(  18) = (   0.3126464   0.6869187   0.4130426  )
        19           Zr  tau(  19) = (   0.1456481   0.5060981   0.2341920  )
        20           Zr  tau(  20) = (   0.1452442   0.5098505   0.9543040  )
        21           Zr  tau(  21) = (   0.4796447   0.5060981   0.2341920  )
        22           Zr  tau(  22) = (   0.4800486   0.5098505   0.9543040  )
        23           H   tau(  23) = (   0.6161590   0.3757177   0.5939321  )

     number of k points=     1  Gaussian smearing, width (Ry)=  0.0220
                       cart. coord. in units 2pi/alat
        k(    1) = (   0.0000000   0.0000000   0.0000000), wk =   1.0000000

     Check: negative core charge=   -0.000002
     Generating pointlists ...
     new r_m :   0.1088 (alat units)  1.7563 (a.u.) for type    1
     new r_m :   0.1201 (alat units)  1.9374 (a.u.) for type    2
     new r_m :   0.0773 (alat units)  1.2477 (a.u.) for type    3
     new r_m :   0.1216 (alat units)  1.9625 (a.u.) for type    4
     new r_m :   0.0773 (alat units)  1.2477 (a.u.) for type    5

     Initial potential from superposition of free atoms

     starting charge     266.9726, renormalised to     277.0000

     negative rho (up, down):  9.226E-01 9.226E-01
     Starting wfcs are  287 randomized atomic wfcs

     Self-consistent Calculation

     iteration #  1     ecut=   120.00 Ry     beta= 0.70
     Davidson diagonalization with overlap
     ethr =  1.00E-02,  avg # of iterations =  2.0

     negative rho (up, down):  9.845E-01 9.843E-01

     total energy              =   -2931.72617240 Ry
     estimated scf accuracy    <     288.28221221 Ry

     total magnetization       =    -0.00 Bohr mag/cell
     absolute magnetization    =     0.09 Bohr mag/cell

[...]

     Magnetic moment per site  (integrated on atomic sphere of radius R)
     atom   1 (R=0.109)  charge=  8.5453  magn=  0.0000
     atom   2 (R=0.109)  charge=  8.2998  magn=  0.0000
     atom   3 (R=0.109)  charge=  8.2999  magn=  0.0004
     atom   4 (R=0.109)  charge=  8.2944  magn=  0.0001
     atom   5 (R=0.109)  charge=  8.3016  magn=  0.0001
     atom   6 (R=0.120)  charge= 10.3466  magn= -0.0005
     atom   7 (R=0.120)  charge= 10.3477  magn= -0.0000
     atom   8 (R=0.077)  charge=  5.9527  magn= -0.0000
     atom   9 (R=0.077)  charge=  5.9677  magn= -0.0001
     atom  10 (R=0.077)  charge=  5.9348  magn=  0.0001
     atom  11 (R=0.077)  charge=  5.9344  magn= -0.0002
     atom  12 (R=0.077)  charge=  5.9347  magn=  0.0005
     atom  13 (R=0.077)  charge=  5.9333  magn= -0.0004
     atom  14 (R=0.077)  charge=  5.9358  magn=  0.0001
     atom  15 (R=0.077)  charge=  5.9354  magn= -0.0001
     atom  16 (R=0.077)  charge=  5.9346  magn=  0.0006
     atom  17 (R=0.077)  charge=  5.9333  magn= -0.0002
     atom  18 (R=0.122)  charge=  9.4552  magn= -0.0003
     atom  19 (R=0.122)  charge=  8.9955  magn=  0.0031
     atom  20 (R=0.122)  charge=  8.9938  magn= -0.0019
     atom  21 (R=0.122)  charge=  8.9984  magn=  0.0028
     atom  22 (R=0.122)  charge=  8.9999  magn= -0.0018
     atom  23 (R=0.077)  charge=  0.9233  magn= -0.0000

     End of self-consistent calculation

 ------ SPIN UP ------------

          k = 0.0000 0.0000 0.0000 ( 56324 PWs)   bands (ev):

   -59.7643 -59.7567 -59.7198 -59.7117 -59.6870 -59.6794 -59.6434 -59.6357
   -59.5265 -59.1571 -53.3482 -53.2851 -53.2236 -53.1589 -51.6743 -45.2353
   -45.2071 -40.6220 -40.6065 -40.5233 -40.5208 -38.7775 -26.7679 -26.7596
   -26.6844 -26.6716 -26.5818 -26.5727 -26.4564 -26.4484 -26.3473 -26.3049
   -26.2780 -26.2433 -26.2344 -26.2113 -26.1970 -26.1597 -26.1393 -26.1263
   -26.0836 -25.9475 -25.9403 -25.9378 -25.9313 -25.8817 -25.8720 -25.8629
   -25.8455 -25.8382 -25.8252 -25.8039 -23.1323 -22.9105 -22.6197 -22.5230
   -22.2837 -22.1420 -22.1053 -22.0115 -21.8934 -21.8096 -21.7883 -21.5673
   -21.4691 -21.4150 -21.3542 -21.3095 -21.2474 -21.1902 -20.7308 -20.6751
[...]

     convergence has been achieved in   4 iterations

     negative rho (up, down):  9.095E-01 9.095E-01

     Forces acting on atoms (cartesian axes, Ry/au):

     atom    1 type  1   force =    -0.00767352   -0.01879034    0.00784893
     atom    2 type  1   force =    -0.12468177   -0.01444316    0.00633244
     atom    3 type  1   force =    -0.12015100    0.01445598    0.01304814
     atom    4 type  1   force =     0.13140883    0.02350270    0.00553765
     atom    5 type  1   force =     0.13376619    0.00587937    0.01311741
     atom    6 type  2   force =    -0.00949067   -0.01199652    0.00764394
     atom    7 type  2   force =    -0.00569472    0.01767042   -0.00519801
     atom    8 type  3   force =    -0.11981601   -0.00147052   -0.00065506
     atom    9 type  3   force =    -0.11544667    0.24649153   -0.00883732
     atom   10 type  3   force =    -0.02168339   -0.02668864   -0.06435853
     atom   11 type  3   force =    -0.01889898   -0.03499968    0.05442568
     atom   12 type  3   force =    -0.02019953    0.03012919   -0.05858454
     atom   13 type  3   force =    -0.02069396    0.02572636    0.05706064
     atom   14 type  3   force =     0.02160747   -0.03221473   -0.06394492
     atom   15 type  3   force =     0.01927381   -0.03978187    0.05385676
     atom   16 type  3   force =     0.01477652    0.03446616   -0.06103109
     atom   17 type  3   force =     0.01556676    0.03070912    0.05909282
     atom   18 type  4   force =    -0.00330671    0.02057802   -0.01308935
     atom   19 type  4   force =    -0.13249042   -0.00311041   -0.11496769
     atom   20 type  4   force =    -0.13787401    0.00697886    0.11184275
     atom   21 type  4   force =     0.12561708   -0.00090545   -0.11490764
     atom   22 type  4   force =     0.12996550    0.00933556    0.11313902
     atom   23 type  5   force =     0.26611919   -0.28152193    0.00262796
     The non-local contrib.  to forces
     atom    1 type  1   force =     0.00019600   -0.01143658    0.02636405
     atom    2 type  1   force =    -0.24697753   -0.15789559    0.02186908
     atom    3 type  1   force =    -0.24454833    0.15702579   -0.02125801
     atom    4 type  1   force =     0.24281014   -0.14026331    0.02187015
     atom    5 type  1   force =     0.24660138    0.16379701   -0.02141882
     atom    6 type  2   force =    -0.00576933   -0.06298931   -0.06494293
     atom    7 type  2   force =     0.00865941    0.06828472    0.06805844
     atom    8 type  3   force =    -0.25020571    0.00022930   -0.00104710
     atom    9 type  3   force =     0.13247589    0.08129047   -0.00164658
     atom   10 type  3   force =    -0.22325584    0.00742768   -0.21552876
     atom   11 type  3   force =    -0.22776017    0.00943903    0.19893370
     atom   12 type  3   force =    -0.21348056   -0.02021248   -0.19272796
     atom   13 type  3   force =    -0.21932766   -0.00399563    0.21580181
     atom   14 type  3   force =     0.23063848    0.01156721   -0.21162314
     atom   15 type  3   force =     0.23561288    0.01165955    0.19731538
     atom   16 type  3   force =     0.20401759   -0.02039298   -0.19203446
     atom   17 type  3   force =     0.20831201   -0.00112862    0.21856937
     atom   18 type  4   force =     0.00286692    0.05834647   -0.06585161
     atom   19 type  4   force =     0.06892844    0.00997843    0.07263857
     atom   20 type  4   force =     0.06147339   -0.01189430   -0.06800754
     atom   21 type  4   force =    -0.06587399    0.00621672    0.05990149
     atom   22 type  4   force =    -0.05792454   -0.01461575   -0.06062354
     atom   23 type  5   force =    -0.08023833    0.06813938   -0.00051721
     The ionic contribution  to forces
     atom    1 type  1   force =    -0.52993471   -4.65272300   14.57773394
     atom    2 type  1   force =   -35.72613024   -6.26710411    0.77814483
     atom    3 type  1   force =   -35.65785060    6.12847919   -0.71197078
     atom    4 type  1   force =    35.10166629   -7.16268619    0.76838950
     atom    5 type  1   force =    35.52205516    6.18715075   -0.71053950
     atom    6 type  2   force =    -0.55625171   -3.61690565  -14.51864293
     atom    7 type  2   force =    -0.21555705    3.74525514   14.31630247
     atom    8 type  3   force =   -47.65603173    0.19340908   -0.06902082
     atom    9 type  3   force =    45.04857367    2.61983201   -0.08981079
     atom   10 type  3   force =   -32.20234408   -2.13938108  -23.50367621
     atom   11 type  3   force =   -31.27207715   -0.88862077   22.50694675
     atom   12 type  3   force =   -31.37327685    0.77710131  -22.51414622
     atom   13 type  3   force =   -32.16163102    2.16626740   23.44323870
     atom   14 type  3   force =    32.04877102   -2.26083289  -23.69287896
     atom   15 type  3   force =    31.11904154   -1.01092956   22.69688971
     atom   16 type  3   force =    31.29923758    0.79506174  -22.57530160
     atom   17 type  3   force =    32.08623118    2.18392681   23.50384987
     atom   18 type  4   force =    -0.19905836    4.50074207  -14.21421131
     atom   19 type  4   force =   -32.14935377    1.00698320  -25.91000733
     atom   20 type  4   force =   -32.12310880   -0.90759707   25.88844958
     atom   21 type  4   force =    31.96500830    1.10017201  -26.20306577
     atom   22 type  4   force =    31.93907236   -0.81047398   26.18044658
     atom   23 type  5   force =     5.69294896   -1.68712639    0.05288029
     The local contribution  to forces
     atom    1 type  1   force =     0.52224748    4.64268375  -14.58633305
     atom    2 type  1   force =    35.85668341    6.41781216   -0.76523260
     atom    3 type  1   force =    35.79052568   -6.27829843    0.77791891
     atom    4 type  1   force =   -35.20845002    7.34221760   -0.75530882
     atom    5 type  1   force =   -35.64214493   -6.35662203    0.77781782
     atom    6 type  2   force =     0.55259514    3.67816796   14.61614768
     atom    7 type  2   force =     0.20392011   -3.79257397  -14.37606718
     atom    8 type  3   force =    47.81514285   -0.19399276    0.09684119
     atom    9 type  3   force =   -45.30193884   -2.46522426    0.11057036
     atom   10 type  3   force =    32.42502304    2.10459628   23.66673534
     atom   11 type  3   force =    31.50368208    0.82844424  -22.67882351
     atom   12 type  3   force =    31.58742295   -0.72676429   22.65893252
     atom   13 type  3   force =    32.38155720   -2.12418300  -23.62983596
     atom   14 type  3   force =   -32.27883746    2.21724088   23.85152388
     atom   15 type  3   force =   -31.35513185    0.94273350  -22.86699142
     atom   16 type  3   force =   -31.50755910   -0.74013207   22.71776795
     atom   17 type  3   force =   -32.29600274   -2.13793167  -23.69192575
     atom   18 type  4   force =     0.19416304   -4.54707670   14.28996616
     atom   19 type  4   force =    31.95839326   -1.01951738   25.73322205
     atom   20 type  4   force =    31.92715862    0.92763920  -25.73035834
     atom   21 type  4   force =   -31.78334624   -1.10659208   26.03852114
     atom   22 type  4   force =   -31.75301005    0.83542263  -26.02793762
     atom   23 type  5   force =    -5.34498938    1.33681810   -0.04576522
     The core correction contribution to forces
     atom    1 type  1   force =     0.00151018    0.00355550   -0.00088909
     atom    2 type  1   force =    -0.01145820   -0.00210007    0.00079026
     atom    3 type  1   force =    -0.01057300    0.00229186   -0.00166205
     atom    4 type  1   force =     0.00454443   -0.00565044    0.00106469
     atom    5 type  1   force =     0.01173611    0.00352476   -0.00194913
     atom    6 type  2   force =     0.00026473    0.00298983    0.00278021
     atom    7 type  2   force =    -0.00026092   -0.00348932   -0.00288037
     atom    8 type  3   force =    -0.02911258   -0.00060216    0.00014537
     atom    9 type  3   force =     0.00916217    0.01453556   -0.00046798
     atom   10 type  3   force =    -0.02315580    0.00922208   -0.01617713
     atom   11 type  3   force =    -0.02441325    0.00983746    0.01653334
     atom   12 type  3   force =    -0.02355801   -0.00902388   -0.01653640
     atom   13 type  3   force =    -0.02325109   -0.00832303    0.01766274
     atom   14 type  3   force =     0.02374529    0.00890407   -0.01517352
     atom   15 type  3   force =     0.02510466    0.01010962    0.01554215
     atom   16 type  3   force =     0.02220041   -0.00969452   -0.01644674
     atom   17 type  3   force =     0.02222033   -0.00868632    0.01747771
     atom   18 type  4   force =     0.00005594   -0.00350625    0.00365470
     atom   19 type  4   force =    -0.01014949    0.00001745   -0.00959236
     atom   20 type  4   force =    -0.00992446    0.00026879    0.00935035
     atom   21 type  4   force =     0.01001245    0.00020895   -0.00869651
     atom   22 type  4   force =     0.00981550    0.00032823    0.00879441
     atom   23 type  5   force =     0.00000000    0.00000000    0.00000000
     The Hubbard contrib.    to forces
     atom    1 type  1   force =     0.00000000    0.00000000    0.00000000
     atom    2 type  1   force =     0.00000000    0.00000000    0.00000000
     atom    3 type  1   force =     0.00000000    0.00000000    0.00000000
     atom    4 type  1   force =     0.00000000    0.00000000    0.00000000
     atom    5 type  1   force =     0.00000000    0.00000000    0.00000000
     atom    6 type  2   force =     0.00000000    0.00000000    0.00000000
     atom    7 type  2   force =     0.00000000    0.00000000    0.00000000
     atom    8 type  3   force =     0.00000000    0.00000000    0.00000000
     atom    9 type  3   force =     0.00000000    0.00000000    0.00000000
     atom   10 type  3   force =     0.00000000    0.00000000    0.00000000
     atom   11 type  3   force =     0.00000000    0.00000000    0.00000000
     atom   12 type  3   force =     0.00000000    0.00000000    0.00000000
     atom   13 type  3   force =     0.00000000    0.00000000    0.00000000
     atom   14 type  3   force =     0.00000000    0.00000000    0.00000000
     atom   15 type  3   force =     0.00000000    0.00000000    0.00000000
     atom   16 type  3   force =     0.00000000    0.00000000    0.00000000
     atom   17 type  3   force =     0.00000000    0.00000000    0.00000000
     atom   18 type  4   force =     0.00000000    0.00000000    0.00000000
     atom   19 type  4   force =     0.00000000    0.00000000    0.00000000
     atom   20 type  4   force =     0.00000000    0.00000000    0.00000000
     atom   21 type  4   force =     0.00000000    0.00000000    0.00000000
     atom   22 type  4   force =     0.00000000    0.00000000    0.00000000
     atom   23 type  5   force =     0.00000000    0.00000000    0.00000000
     The SCF correction term to forces
     atom    1 type  1   force =    -0.00000000   -0.00000000   -0.00000000
     atom    2 type  1   force =     0.00000000   -0.00000000   -0.00000000
     atom    3 type  1   force =     0.00000000    0.00000000   -0.00000000
     atom    4 type  1   force =    -0.00000000   -0.00000000   -0.00000000
     atom    5 type  1   force =    -0.00000000    0.00000000   -0.00000000
     atom    6 type  2   force =    -0.00000000   -0.00000000   -0.00000000
     atom    7 type  2   force =    -0.00000000    0.00000000   -0.00000000
     atom    8 type  3   force =     0.00000000   -0.00000000   -0.00000000
     atom    9 type  3   force =    -0.00000000   -0.00000000   -0.00000000
     atom   10 type  3   force =     0.00229515   -0.00856209    0.00592085
     atom   11 type  3   force =     0.00191536    0.00589187    0.01246802
     atom   12 type  3   force =     0.00293879    0.00902006    0.00752614
     atom   13 type  3   force =     0.00220446   -0.00404788    0.01182597
     atom   14 type  3   force =    -0.00246401   -0.00910249    0.00583944
     atom   15 type  3   force =    -0.00510756    0.00663652    0.01273356
     atom   16 type  3   force =    -0.00287411    0.00961550    0.00661638
     atom   17 type  3   force =    -0.00494816   -0.00547958    0.01275424
     atom   18 type  4   force =    -0.00108840    0.01206393   -0.02501469
     atom   19 type  4   force =    -0.00006300   -0.00058060    0.00040399
     atom   20 type  4   force =     0.00677309   -0.00144626    0.01404131
     atom   21 type  4   force =     0.00006241   -0.00091954    0.00006464
     atom   22 type  4   force =    -0.00774192   -0.00133407    0.01409181
     atom   23 type  5   force =    -0.00135622    0.00063848   -0.00233728

     Total force =     0.557689     Total SCF correction =     0.051177

     Computing stress (Cartesian axis) and pressure

     negative rho (up, down):  9.095E-01 9.095E-01
          total   stress  (Ry/bohr**3)                   (kbar)     P=       98.49
   0.00075362  -0.00010463  -0.00000131          110.86      -15.39       -0.19
  -0.00010463   0.00082414  -0.00001400          -15.39      121.23       -2.06
  -0.00000131  -0.00001400   0.00043083           -0.19       -2.06       63.38

     Entering Dynamics:    iteration =    20
                           time      =   0.0041 pico-seconds

ATOMIC_POSITIONS (angstrom)
Hf            2.6699999570        2.8271230292        6.6039642186    0   0   0
Hf            1.2529906802        1.2862841814        5.0584662261    0   0   0
Hf            1.2554868986        7.3898042948        5.0880677674    0   0   0
Hf            4.0870092338        1.2862841814        5.0584662261    0   0   0
Hf            4.0845130154        7.3898042948        5.0880677674    0   0   0
Nb            2.6699999570        2.7969306055        3.5155832167    0   0   0
Nb            2.6699999570        5.8763786763        6.6349979432    0   0   0
Ta            1.2093730560        4.3409278516        5.0711258323    0   0   0
Ta            4.1306268580        4.3409278516        5.0711258323    0   0   0
Ta            1.3069954180        1.3138098932        2.0580764505
Ta            1.3025589283        1.3080066712        8.0952390213
Ta            1.3037798532        7.3762025702        2.0455966287
Ta            1.3074709603        7.3653678510        8.0867064465
Ta            4.0329842587        1.3137619002        2.0581006468
Ta            4.0374231919        1.3079726699        8.0952060907
Ta            4.0361391164        7.3762126837        2.0455947174
Ta            4.0324483950        7.3654069488        8.0867032803
Zr            2.6701279562        5.8667053308        3.5271135807
Zr            1.2407735304        4.3220038935        1.9974284129
Zr            1.2372392691        4.3542823415        8.1523684820
Zr            4.0990613900        4.3220475895        1.9974745499
Zr            4.1025716110        4.3543503173        8.1523434604
H             5.1881811741        3.2566956421        5.0813182025

     kinetic energy (Ekin) =           1.75234681 Ry
     temperature           =       13174.93708804 K
     Ekin + Etot (const)   =       -2941.23679747 Ry
     Ions kinetic stress =           33.85 (kbar)
                                     48.69         -50.56           0.74
                                    -50.56          52.69          -0.77
                                      0.74          -0.77           0.16

     The maximum number of steps has been reached.

     End of molecular dynamics calculation

     diffusion coefficients :
     atom     1   D =       0.00000000 cm^2/s
     atom     2   D =       0.00000000 cm^2/s
     atom     3   D =       0.00000000 cm^2/s
     atom     4   D =       0.00000000 cm^2/s
     atom     5   D =       0.00000000 cm^2/s
     atom     6   D =       0.00000000 cm^2/s
     atom     7   D =       0.00000000 cm^2/s
     atom     8   D =       0.00000000 cm^2/s
     atom     9   D =       0.00000000 cm^2/s
     atom    10   D =       0.00000000 cm^2/s
     atom    11   D =       0.00000000 cm^2/s
     atom    12   D =       0.00000000 cm^2/s
     atom    13   D =       0.00000000 cm^2/s
     atom    14   D =       0.00000000 cm^2/s
     atom    15   D =       0.00000000 cm^2/s
     atom    16   D =       0.00000000 cm^2/s
     atom    17   D =       0.00000000 cm^2/s
     atom    18   D =       0.00000000 cm^2/s
     atom    19   D =       0.00000007 cm^2/s
     atom    20   D =       0.00000007 cm^2/s
     atom    21   D =       0.00000006 cm^2/s
     atom    22   D =       0.00000006 cm^2/s
     atom    23   D =       0.00003217 cm^2/s

     < D > =       0.00000232 cm^2/s

     Writing all to output data dir outdir/pwscf.save/

     General routines

     Parallel routines

   This run was terminated on:  20:34:50  11Jun2023

   JOB DONE.