     Program PWSCF v.7.2 starts on 13Jun2023 at 19:16:41

     Reading input from md_data/md_Hf5Nb2Ta10Zr5H_20steps_100eV_incident30_polar30.in
Warning: card &CELL ignored
Warning: card / ignored

     Current dimensions of program PWSCF are:
     Max number of different atomic species (ntypx) = 10
     Max number of k-points (npk) =  40000
     Max angular momentum in pseudopotentials (lmaxx) =  4

     File outdir/pwscf.md deleted, as requested

     gamma-point specific algorithms are used

     R & G space division:  proc/nbgrp/npool/nimage =      42
     Subspace diagonalization in iterative solution of the eigenvalue problem:
     one sub-group per band group will be used

     Using Slab Decomposition

     bravais-lattice index     =            0
     lattice parameter (alat)  =      17.6500  a.u.
     unit-cell volume          =    5552.8853 (a.u.)^3
     number of atoms/cell      =           23
     number of atomic types    =            5
     number of electrons       =       277.00
     number of Kohn-Sham states=          167
     kinetic-energy cutoff     =     120.0000  Ry
     charge density cutoff     =     480.0000  Ry
     scf convergence threshold =      1.0E-03
     mixing beta               =       0.7000
     number of iterations used =            8  TF        mixing
     energy convergence thresh.=      0.0E+00
     force convergence thresh. =      0.0E+00
     Exchange-correlation=  SLA  PW   PBX  PBC
                           (   1   4   3   4   0   0   0)
     nstep                     =           20

     celldm(1)=  17.650041  celldm(2)=   0.000000  celldm(3)=   0.000000
     celldm(4)=   0.000000  celldm(5)=   0.000000  celldm(6)=   0.000000

     crystal axes: (cart. coord. in units of alat)
               a(1) = (   1.000000   0.000000   0.000000 )
               a(2) = (   0.000000   0.929336   0.000000 )
               a(3) = (   0.000000   0.000000   1.086698 )

     reciprocal axes: (cart. coord. in units 2 pi/alat)
               b(1) = (  1.000000  0.000000  0.000000 )
               b(2) = (  0.000000  1.076037  0.000000 )
               b(3) = (  0.000000  0.000000  0.920219 )

     PseudoPot. # 1 for Hf read from file:
     q-e/pseudo/hf_pbe_v1.uspp.F.UPF
     MD5 check sum: 8ee9378dfe14276e333edf04c5e4aa26
     Pseudo is Ultrasoft + core correction, Zval = 12.0
     Generated by new atomic code, or converted to UPF format
     Using radial grid of  921 points,  8 beta functions with:
                l(1) =   0
                l(2) =   0
                l(3) =   0
                l(4) =   1
                l(5) =   1
                l(6) =   2
                l(7) =   2
                l(8) =   3
     Q(r) pseudized with  6 coefficients,  rinner =    1.200   1.200   1.200
                                                       1.200   1.200   1.200
                                                       1.200

     PseudoPot. # 2 for Nb read from file:
     q-e/pseudo/nb_pbe_v1.uspp.F.UPF
     MD5 check sum: 573aab8a2fa660278ed4a62cd769473f
     Pseudo is Ultrasoft + core correction, Zval = 13.0
     Generated by new atomic code, or converted to UPF format
     Using radial grid of  887 points,  6 beta functions with:
                l(1) =   0
                l(2) =   0
                l(3) =   1
                l(4) =   1
                l(5) =   2
                l(6) =   2
     Q(r) pseudized with  6 coefficients,  rinner =    1.000   1.000   1.000
                                                       1.000   1.000

     PseudoPot. # 3 for Ta read from file:
     q-e/pseudo/ta_pbe_v1.uspp.F.UPF
     MD5 check sum: f8bbe9446314a3b8ea5d9f3e3836c939
     Pseudo is Ultrasoft + core correction, Zval = 13.0
     Generated by new atomic code, or converted to UPF format
     Using radial grid of  921 points,  7 beta functions with:
                l(1) =   0
                l(2) =   0
                l(3) =   1
                l(4) =   1
                l(5) =   2
                l(6) =   2
                l(7) =   3
     Q(r) pseudized with  6 coefficients,  rinner =    1.300   1.300   1.300
                                                       1.300   1.300   1.300
                                                       1.300

     PseudoPot. # 4 for Zr read from file:
     q-e/pseudo/zr_pbe_v1.uspp.F.UPF
     MD5 check sum: 5db81b1e868ab7776c4564c113de050b
     Pseudo is Ultrasoft + core correction, Zval = 12.0
     Generated by new atomic code, or converted to UPF format
     Using radial grid of  887 points,  6 beta functions with:
                l(1) =   0
                l(2) =   0
                l(3) =   1
                l(4) =   1
                l(5) =   2
                l(6) =   2
     Q(r) pseudized with  6 coefficients,  rinner =    1.200   1.200   1.200
                                                       1.200   1.200

     PseudoPot. # 5 for H  read from file:
     q-e/pseudo/h_pbe_v1.4.uspp.F.UPF
     MD5 check sum: 761ae9a214b05c3daf00ab9f6b793d6f
     Pseudo is Ultrasoft, Zval =  1.0
     Generated by new atomic code, or converted to UPF format
     Using radial grid of  615 points,  2 beta functions with:
                l(1) =   0
                l(2) =   0
     Q(r) pseudized with  8 coefficients,  rinner =    0.700

     atomic species   valence    mass     pseudopotential
        Hf            12.00   178.49000     Hf( 1.00)
        Nb            13.00    92.90637     Nb( 1.00)
        Ta            13.00   180.94788     Ta( 1.00)
        Zr            12.00    91.22400     Zr( 1.00)
        H              1.00     2.01400     H ( 1.00)

     Starting magnetic structure
     atomic species   magnetization
        Hf           0.000
        Nb           0.000
        Ta           0.000
        Zr           0.000
        H            0.000

     No symmetry found

   Cartesian axes

     site n.     atom                  positions (alat units)
         1           Hf  tau(   1) = (   0.2858672   0.3026898   0.7070626  )
         2           Hf  tau(   2) = (   0.1341532   0.1377178   0.5415917  )
         3           Hf  tau(   3) = (   0.1344204   0.7911996   0.5447610  )
         4           Hf  tau(   4) = (   0.4375813   0.1377178   0.5415917  )
         5           Hf  tau(   5) = (   0.4373140   0.7911996   0.5447610  )
         6           Nb  tau(   6) = (   0.2858672   0.2994572   0.3764008  )
         7           Nb  tau(   7) = (   0.2858672   0.6291626   0.7103852  )
         8           Ta  tau(   8) = (   0.1294832   0.4647675   0.5429471  )
         9           Ta  tau(   9) = (   0.4422513   0.4647675   0.5429471  )
        10           Ta  tau(  10) = (   0.1399628   0.1406984   0.2204260  )
        11           Ta  tau(  11) = (   0.1394848   0.1400847   0.8666573  )
        12           Ta  tau(  12) = (   0.1396156   0.7897030   0.2190832  )
        13           Ta  tau(  13) = (   0.1400119   0.7885528   0.8657390  )
        14           Ta  tau(  14) = (   0.4317717   0.1406984   0.2204260  )
        15           Ta  tau(  15) = (   0.4322496   0.1400847   0.8666573  )
        16           Ta  tau(  16) = (   0.4321189   0.7897030   0.2190832  )
        17           Ta  tau(  17) = (   0.4317226   0.7885528   0.8657390  )
        18           Zr  tau(  18) = (   0.2858672   0.6280820   0.3776642  )
        19           Zr  tau(  19) = (   0.1331729   0.4627493   0.2141328  )
        20           Zr  tau(  20) = (   0.1328036   0.4661802   0.8725649  )
        21           Zr  tau(  21) = (   0.4385616   0.4627493   0.2141328  )
        22           Zr  tau(  22) = (   0.4389309   0.4661802   0.8725649  )
        23           H   tau(  23) = (   0.6276957   0.5573903   0.5965931  )

     number of k points=     1  Gaussian smearing, width (Ry)=  0.0220
                       cart. coord. in units 2pi/alat
        k(    1) = (   0.0000000   0.0000000   0.0000000), wk =   1.0000000

     Check: negative core charge=   -0.000002
     Generating pointlists ...
     new r_m :   0.1117 (alat units)  1.9717 (a.u.) for type    1
     new r_m :   0.1098 (alat units)  1.9374 (a.u.) for type    2
     new r_m :   0.0883 (alat units)  1.5589 (a.u.) for type    3
     new r_m :   0.1112 (alat units)  1.9625 (a.u.) for type    4
     new r_m :   0.0883 (alat units)  1.5589 (a.u.) for type    5

     Initial potential from superposition of free atoms

     starting charge     266.9726, renormalised to     277.0000

     negative rho (up, down):  9.217E-01 9.217E-01
     Starting wfcs are  287 randomized atomic wfcs

     Self-consistent Calculation

     iteration #  1     ecut=   120.00 Ry     beta= 0.70
     Davidson diagonalization with overlap
     ethr =  1.00E-02,  avg # of iterations =  2.0

     negative rho (up, down):  9.956E-01 9.953E-01

     total energy              =   -2930.55206247 Ry
     estimated scf accuracy    <     277.08287383 Ry

     total magnetization       =    -0.00 Bohr mag/cell
     absolute magnetization    =     0.09 Bohr mag/cell

[...]

     iteration # 10     ecut=   120.00 Ry     beta= 0.70
     Davidson diagonalization with overlap
     c_bands:  1 eigenvalues not converged
     ethr =  2.20E-05,  avg # of iterations = 18.0

[...]

     Magnetic moment per site  (integrated on atomic sphere of radius R)
     atom   1 (R=0.112)  charge=  9.4619    0.0002
     atom   2 (R=0.112)  charge=  9.0595    0.0003
     atom   3 (R=0.112)  charge=  9.0583    0.0002
     atom   4 (R=0.112)  charge=  9.0578   -0.0002
     atom   5 (R=0.112)  charge=  9.0501    0.0005
     atom   6 (R=0.110)  charge= 10.3491    0.0005
     atom   7 (R=0.110)  charge= 10.3487   -0.0000
     atom   8 (R=0.088)  charge=  8.1255   -0.0001
     atom   9 (R=0.088)  charge=  8.1159    0.0003
     atom  10 (R=0.088)  charge=  8.1059    0.0006
     atom  11 (R=0.088)  charge=  8.1033    0.0008
     atom  12 (R=0.088)  charge=  8.1063    0.0010
     atom  13 (R=0.088)  charge=  8.1037    0.0007
     atom  14 (R=0.088)  charge=  8.1055    0.0011
     atom  15 (R=0.088)  charge=  8.1023    0.0006
     atom  16 (R=0.088)  charge=  8.1058    0.0001
     atom  17 (R=0.088)  charge=  8.1084    0.0017
     atom  18 (R=0.111)  charge=  9.4532    0.0003
     atom  19 (R=0.111)  charge=  9.0000    0.0004
     atom  20 (R=0.111)  charge=  8.9968    0.0002
     atom  21 (R=0.111)  charge=  8.9994    0.0003
     atom  22 (R=0.111)  charge=  8.9961    0.0004
     atom  23 (R=0.088)  charge=  0.9730    0.0000

     End of self-consistent calculation

 ------ SPIN UP ------------

          k = 0.0000 0.0000 0.0000 ( 61588 PWs)   bands (ev):

   -60.7969 -60.7877 -60.7524 -60.7427 -60.7176 -60.7115 -60.6733 -60.6682
   -60.5299 -60.4052 -54.4014 -54.3530 -54.2738 -54.2267 -52.7107 -46.2809
   -46.2730 -41.6637 -41.6530 -41.5682 -41.5517 -39.8135 -27.7971 -27.7910
   -27.7128 -27.7032 -27.6101 -27.6039 -27.4841 -27.4737 -27.3817 -27.3473
   -27.3121 -27.2850 -27.2710 -27.2522 -27.2399 -27.1858 -27.1788 -27.1568
   -27.1020 -27.0773 -27.0171 -26.9754 -26.9686 -26.9618 -26.9529 -26.9064
   -26.9014 -26.8947 -26.8715 -26.8690 -24.1867 -23.9741 -23.6746 -23.5831
   -23.3304 -23.1978 -23.1753 -23.0734 -22.9472 -22.8744 -22.8532 -22.6327
[...]

     convergence has been achieved in   4 iterations

     negative rho (up, down):  9.091E-01 9.091E-01

     Forces acting on atoms (cartesian axes, Ry/au):

     atom    1 type  1   force =    -0.00956106   -0.02760151    0.01477526
     atom    2 type  1   force =    -0.11529169   -0.01700396   -0.01010981
     atom    3 type  1   force =    -0.11869604    0.01299299   -0.00429197
     atom    4 type  1   force =     0.11494132   -0.01484820   -0.01246673
     atom    5 type  1   force =     0.13926689   -0.00391613   -0.00158608
     atom    6 type  2   force =    -0.01710797   -0.02126157   -0.00008721
     atom    7 type  2   force =    -0.01903151    0.01022917   -0.00755369
     atom    8 type  3   force =    -0.11691656    0.00350817   -0.00541350
     atom    9 type  3   force =     0.18757970    0.03478590    0.01220793
     atom   10 type  3   force =    -0.01835342   -0.03113242   -0.05718620
     atom   11 type  3   force =    -0.01979568   -0.03297720    0.06057771
     atom   12 type  3   force =    -0.01775953    0.03664332   -0.05202537
     atom   13 type  3   force =    -0.01826004    0.02840843    0.06441222
     atom   14 type  3   force =     0.02188738   -0.03204334   -0.05713085
     atom   15 type  3   force =     0.01902783   -0.03458385    0.06031028
     atom   16 type  3   force =     0.01924057    0.03853065   -0.05090286
     atom   17 type  3   force =     0.01850950    0.03552810    0.06438145
     atom   18 type  4   force =    -0.00732036    0.02510063   -0.01494142
     atom   19 type  4   force =    -0.12511617   -0.00431640   -0.11422075
     atom   20 type  4   force =    -0.13051546    0.00608839    0.11838651
     atom   21 type  4   force =     0.12453930   -0.00838864   -0.11679818
     atom   22 type  4   force =     0.14236383    0.00323530    0.11526476
     atom   23 type  5   force =    -0.05363084   -0.00697782   -0.00560151
     The non-local contrib.  to forces
     atom    1 type  1   force =     0.00073658   -0.01150800    0.02398980
     atom    2 type  1   force =    -0.25003861   -0.16077739    0.00953074
     atom    3 type  1   force =    -0.24355712    0.15610654   -0.02948148
     atom    4 type  1   force =     0.25248121   -0.16197299    0.01554409
     atom    5 type  1   force =     0.25453173    0.14746028   -0.01968713
     atom    6 type  2   force =     0.00743949   -0.05017176   -0.05968994
     atom    7 type  2   force =    -0.02647432    0.06516948    0.05805266
     atom    8 type  3   force =    -0.28030595    0.00584706   -0.00171270
     atom    9 type  3   force =     0.18891959   -0.01924445   -0.00633412
     atom   10 type  3   force =    -0.20542880    0.00299281   -0.20472213
     atom   11 type  3   force =    -0.21177301    0.00364679    0.20031497
     atom   12 type  3   force =    -0.20460933   -0.01907405   -0.17662468
     atom   13 type  3   force =    -0.21525231   -0.00449910    0.20721341
     atom   14 type  3   force =     0.20019600    0.00075003   -0.21617124
     atom   15 type  3   force =     0.21317109    0.00510567    0.19738327
     atom   16 type  3   force =     0.20214359   -0.01936420   -0.18335375
     atom   17 type  3   force =     0.24442374   -0.02087826    0.18506482
     atom   18 type  4   force =    -0.00977645    0.05703878   -0.06442595
     atom   19 type  4   force =     0.06108066    0.00805534    0.06780662
     atom   20 type  4   force =     0.05672355   -0.01827766   -0.05931839
     atom   21 type  4   force =    -0.06156894    0.01029998    0.07400014
     atom   22 type  4   force =    -0.06115663   -0.01065960   -0.07206079
     atom   23 type  5   force =    -0.01858489   -0.00426210   -0.00408258
     The ionic contribution  to forces
     atom    1 type  1   force =    -0.18729508   -4.78871820   14.32251550
     atom    2 type  1   force =   -39.67768888   -6.18640384    0.76271522
     atom    3 type  1   force =   -39.56746637    6.20162838   -0.74577026
     atom    4 type  1   force =    39.60539244   -6.28734233    0.76349604
     atom    5 type  1   force =    39.23954966    6.34872143   -0.83181322
     atom    6 type  2   force =    -0.28116813   -3.85728084  -14.30117621
     atom    7 type  2   force =    -0.15807192    3.67935863   14.08994721
     atom    8 type  3   force =   -52.29751127    0.06036085   -0.08240496
     atom    9 type  3   force =    51.05655675    0.00138234   -0.18743992
     atom   10 type  3   force =   -36.03058943   -2.09767769  -23.08071963
     atom   11 type  3   force =   -35.08804060   -0.84304693   22.09554127
     atom   12 type  3   force =   -35.19467243    0.81648030  -22.13945869
     atom   13 type  3   force =   -35.95525390    2.21389201   23.09095579
     atom   14 type  3   force =    35.98453932   -2.11862044  -23.12237077
     atom   15 type  3   force =    35.02455964   -0.84655316   22.13629767
     atom   16 type  3   force =    35.12794183    0.83997621  -22.18790626
     atom   17 type  3   force =    35.78861576    2.29388040   23.20474762
     atom   18 type  4   force =    -0.14145067    4.55352038  -14.08321221
     atom   19 type  4   force =   -35.85791755    0.94283075  -25.54436727
     atom   20 type  4   force =   -35.78614026   -0.98074015   25.53509678
     atom   21 type  4   force =    35.80691623    0.94822061  -25.65562302
     atom   22 type  4   force =    35.61718614   -1.04672103   25.64044403
     atom   23 type  5   force =     2.97200871    0.15285233    0.32050529
     The local contribution  to forces
     atom    1 type  1   force =     0.17681397    4.77158230  -14.34565787
     atom    2 type  1   force =    39.82479477    6.32917767   -0.81253468
     atom    3 type  1   force =    39.70384595   -6.34568574    0.74309241
     atom    4 type  1   force =   -39.75465936    6.43340274   -0.82486327
     atom    5 type  1   force =   -39.36021392   -6.50358134    0.82059650
     atom    6 type  2   force =     0.25995841    3.88010945   14.31728854
     atom    7 type  2   force =     0.16253064   -3.73324913  -14.17468760
     atom    8 type  3   force =    52.49186723   -0.06314358    0.04689620
     atom    9 type  3   force =   -51.09073189    0.05048126    0.17119843
     atom   10 type  3   force =    36.24455153    2.04786803   23.24152999
     atom   11 type  3   force =    35.30180530    0.80417531  -22.24076899
     atom   12 type  3   force =    35.40766176   -0.74448680   22.27706619
     atom   13 type  3   force =    36.17119472   -2.17751364  -23.23970106
     atom   14 type  3   force =   -36.18657574    2.07035771   23.29460214
     atom   15 type  3   force =   -35.24104551    0.80661361  -22.27655853
     atom   16 type  3   force =   -35.33597728   -0.76348791   22.33347926
     atom   17 type  3   force =   -36.03620219   -2.23384864  -23.32929139
     atom   18 type  4   force =     0.14420662   -4.57858228   14.09210964
     atom   19 type  4   force =    35.68688099   -0.95575993   25.36603192
     atom   20 type  4   force =    35.60777248    1.00359363  -25.35376013
     atom   21 type  4   force =   -35.63432466   -0.96839948   25.46883905
     atom   22 type  4   force =   -35.42301400    1.05770640  -25.44885776
     atom   23 type  5   force =    -3.00427935   -0.15368938   -0.32535565
     The core correction contribution to forces
     atom    1 type  1   force =     0.00070283    0.00113016   -0.00103970
     atom    2 type  1   force =    -0.01197473   -0.00147458    0.00028928
     atom    3 type  1   force =    -0.01272755    0.00240464   -0.00153011
     atom    4 type  1   force =     0.01275209   -0.00174038    0.00218169
     atom    5 type  1   force =     0.00894259    0.00715911   -0.00149036
     atom    6 type  2   force =    -0.00050833    0.00218903    0.00222719
     atom    7 type  2   force =     0.00102051   -0.00328206   -0.00225617
     atom    8 type  3   force =    -0.03362835    0.00104838    0.00024341
     atom    9 type  3   force =     0.02081850   -0.00511230   -0.00128561
     atom   10 type  3   force =    -0.02194376    0.00916696   -0.01667034
     atom   11 type  3   force =    -0.02375789    0.00873890    0.01789518
     atom   12 type  3   force =    -0.02238193   -0.00964565   -0.01545997
     atom   13 type  3   force =    -0.02344851   -0.00896278    0.01630510
     atom   14 type  3   force =     0.02161575    0.01003733   -0.01581797
     atom   15 type  3   force =     0.02331514    0.01022033    0.01485887
     atom   16 type  3   force =     0.02320724   -0.01167044   -0.01495669
     atom   17 type  3   force =     0.02431629   -0.00991807    0.01377904
     atom   18 type  4   force =     0.00044029   -0.00296255    0.00282625
     atom   19 type  4   force =    -0.00976061    0.00008780   -0.00930952
     atom   20 type  4   force =    -0.00969652    0.00063411    0.00894734
     atom   21 type  4   force =     0.00993294    0.00004660   -0.00967832
     atom   22 type  4   force =     0.01040564    0.00045714    0.00925105
     atom   23 type  5   force =     0.00000000    0.00000000    0.00000000
     The Hubbard contrib.    to forces
     atom    1 type  1   force =     0.00000000    0.00000000    0.00000000
     atom    2 type  1   force =     0.00000000    0.00000000    0.00000000
     atom    3 type  1   force =     0.00000000    0.00000000    0.00000000
     atom    4 type  1   force =     0.00000000    0.00000000    0.00000000
     atom    5 type  1   force =     0.00000000    0.00000000    0.00000000
     atom    6 type  2   force =     0.00000000    0.00000000    0.00000000
     atom    7 type  2   force =     0.00000000    0.00000000    0.00000000
     atom    8 type  3   force =     0.00000000    0.00000000    0.00000000
     atom    9 type  3   force =     0.00000000    0.00000000    0.00000000
     atom   10 type  3   force =     0.00000000    0.00000000    0.00000000
     atom   11 type  3   force =     0.00000000    0.00000000    0.00000000
     atom   12 type  3   force =     0.00000000    0.00000000    0.00000000
     atom   13 type  3   force =     0.00000000    0.00000000    0.00000000
     atom   14 type  3   force =     0.00000000    0.00000000    0.00000000
     atom   15 type  3   force =     0.00000000    0.00000000    0.00000000
     atom   16 type  3   force =     0.00000000    0.00000000    0.00000000
     atom   17 type  3   force =     0.00000000    0.00000000    0.00000000
     atom   18 type  4   force =     0.00000000    0.00000000    0.00000000
     atom   19 type  4   force =     0.00000000    0.00000000    0.00000000
     atom   20 type  4   force =     0.00000000    0.00000000    0.00000000
     atom   21 type  4   force =     0.00000000    0.00000000    0.00000000
     atom   22 type  4   force =     0.00000000    0.00000000    0.00000000
     atom   23 type  5   force =     0.00000000    0.00000000    0.00000000
     The SCF correction term to forces
     atom    1 type  1   force =    -0.00050902   -0.00012443    0.01269861
     atom    2 type  1   force =    -0.00037389    0.00243752    0.02762071
     atom    3 type  1   force =     0.00121940   -0.00149749    0.02712855
     atom    4 type  1   force =    -0.00101471    0.00276809    0.02890581
     atom    5 type  1   force =    -0.00353282   -0.00371227    0.02853922
     atom    6 type  2   force =    -0.00281906    0.00385587    0.03899429
     atom    7 type  2   force =     0.00197391    0.00219558    0.01912129
     atom    8 type  3   force =     0.00267213   -0.00064121    0.02929562
     atom    9 type  3   force =     0.01202711    0.00724238    0.03380023
     atom   10 type  3   force =    -0.00493261    0.00648080    0.00112700
     atom   11 type  3   force =     0.00198086   -0.00652795   -0.01467364
     atom   12 type  3   force =    -0.00374725   -0.00666714    0.00018286
     atom   13 type  3   force =     0.00451030    0.00545527   -0.01262994
     atom   14 type  3   force =     0.00212240    0.00539536    0.00035807
     atom   15 type  3   force =    -0.00096219   -0.01000696   -0.01393991
     atom   16 type  3   force =     0.00193554   -0.00695967   -0.00043435
     atom   17 type  3   force =    -0.00263376    0.00625600   -0.01218756
     atom   18 type  4   force =    -0.00072980   -0.00395037    0.03549193
     atom   19 type  4   force =    -0.00538932    0.00043298    0.00334857
     atom   20 type  4   force =     0.00083563    0.00084180   -0.01484800
     atom   21 type  4   force =     0.00359407    0.00140699    0.00339504
     atom   22 type  4   force =    -0.00104697    0.00241574   -0.01578068
     atom   23 type  5   force =    -0.00276497   -0.00191535    0.00106250

     Total force =     0.528727     Total SCF correction =     0.102396
     SCF correction compared to forces is large: reduce conv_thr to get better values

     Computing stress (Cartesian axis) and pressure

     negative rho (up, down):  9.091E-01 9.091E-01
          total   stress  (Ry/bohr**3)                   (kbar)     P=       81.84
   0.00063426  -0.00000036  -0.00000313           93.30       -0.05       -0.46
  -0.00000036   0.00065031  -0.00001086           -0.05       95.66       -1.60
  -0.00000313  -0.00001086   0.00038448           -0.46       -1.60       56.56

     Entering Dynamics:    iteration =    20
                           time      =   0.0041 pico-seconds

ATOMIC_POSITIONS (angstrom)
Hf            2.6722164395        2.8279569270        6.6047492547
Hf            1.2538154423        1.2871909006        5.0590815715
Hf            1.2563042597        7.3910260393        5.0887380621
Hf            4.0905542877        1.2872187361        5.0590582393
Hf            4.0881351636        7.3909127296        5.0887664044
Nb            2.6722502297        2.7977018444        3.5163963599
Nb            2.6720496057        5.8777085865        6.6353365539
Ta            1.2101832955        4.3421319446        5.0717857733
Ta            4.0880244372        4.3182684245        5.0577879329
Ta            1.3091719657        1.3148658839        2.0587430573
Ta            1.3047249961        1.3090712902        8.0958377708
Ta            1.3059655228        7.3773157293        2.0462335947
Ta            1.3096748584        7.3665183025        8.0873154635
Ta            4.0351477476        1.3149014930        2.0587524058
Ta            4.0395980787        1.3090796479        8.0958428941
Ta            4.0383872634        7.3773121425        2.0462600219
Ta            4.0346400324        7.3665441259        8.0872985053
Zr            2.6722435534        5.8679624025        3.5278806601
Zr            1.2430619267        4.3230651183        1.9980142175
Zr            1.2395516814        4.3553116761        8.1529597462
Zr            4.1012111631        4.3230002296        1.9980503816
Zr            4.1047875822        4.3552951808        8.1529355738
H             6.3949651724        5.5365070190        5.7696284693

     kinetic energy (Ekin) =           8.05991062 Ry
     temperature           =       38562.40113391 K
     Ekin + Etot (const)   =       -2934.96158624 Ry
     Ions kinetic stress =          142.35 (kbar)
                                    308.75         164.90          96.23
                                    164.90          88.15          51.43
                                     96.23          51.43          30.15

     Linear momentum :    0.0000000000    0.0000000000   -0.0000000000

     The maximum number of steps has been reached.

     End of molecular dynamics calculation

     diffusion coefficients :
     atom     1   D =       0.00000003 cm^2/s
     atom     2   D =       0.00000001 cm^2/s
     atom     3   D =       0.00000001 cm^2/s
     atom     4   D =       0.00000006 cm^2/s
     atom     5   D =       0.00000006 cm^2/s
     atom     6   D =       0.00000003 cm^2/s
     atom     7   D =       0.00000002 cm^2/s
     atom     8   D =       0.00000001 cm^2/s
     atom     9   D =       0.00001028 cm^2/s
     atom    10   D =       0.00000002 cm^2/s
     atom    11   D =       0.00000002 cm^2/s
     atom    12   D =       0.00000002 cm^2/s
     atom    13   D =       0.00000003 cm^2/s
     atom    14   D =       0.00000003 cm^2/s
     atom    15   D =       0.00000003 cm^2/s
     atom    16   D =       0.00000003 cm^2/s
     atom    17   D =       0.00000004 cm^2/s
     atom    18   D =       0.00000003 cm^2/s
     atom    19   D =       0.00000002 cm^2/s
     atom    20   D =       0.00000005 cm^2/s
     atom    21   D =       0.00000012 cm^2/s
     atom    22   D =       0.00000016 cm^2/s
     atom    23   D =       0.00176986 cm^2/s

     < D > =       0.00007743 cm^2/s

     Writing all to output data dir outdir/pwscf.save/

     General routines

     Parallel routines

   This run was terminated on:  20:17:22  13Jun2023

   JOB DONE.