     Program PWSCF v.7.2 starts on 14Jun2023 at 21:11: 3

     Reading input from md_data/md_Hf5Nb2Ta10Zr5H_20steps_200eV_incident30_polar0.in
Warning: card &CELL ignored
Warning: card / ignored

     Current dimensions of program PWSCF are:
     Max number of different atomic species (ntypx) = 10
     Max number of k-points (npk) =  40000
     Max angular momentum in pseudopotentials (lmaxx) =  4

     File outdir/pwscf.md deleted, as requested

     gamma-point specific algorithms are used

     R & G space division:  proc/nbgrp/npool/nimage =      42
     Subspace diagonalization in iterative solution of the eigenvalue problem:
     one sub-group per band group will be used

     Using Slab Decomposition

     bravais-lattice index     =            0
     lattice parameter (alat)  =      17.6500  a.u.
     unit-cell volume          =    5552.8853 (a.u.)^3
     number of atoms/cell      =           23
     number of atomic types    =            5
     number of electrons       =       277.00
     number of Kohn-Sham states=          167
     kinetic-energy cutoff     =     120.0000  Ry
     charge density cutoff     =     480.0000  Ry
     scf convergence threshold =      1.0E-03
     mixing beta               =       0.7000
     number of iterations used =            8  TF        mixing
     energy convergence thresh.=      0.0E+00
     force convergence thresh. =      0.0E+00
     Exchange-correlation=  SLA  PW   PBX  PBC
                           (   1   4   3   4   0   0   0)
     nstep                     =           20

     celldm(1)=  17.650041  celldm(2)=   0.000000  celldm(3)=   0.000000
     celldm(4)=   0.000000  celldm(5)=   0.000000  celldm(6)=   0.000000

     crystal axes: (cart. coord. in units of alat)
               a(1) = (   1.000000   0.000000   0.000000 )
               a(2) = (   0.000000   0.929336   0.000000 )
               a(3) = (   0.000000   0.000000   1.086698 )

     reciprocal axes: (cart. coord. in units 2 pi/alat)
               b(1) = (  1.000000  0.000000  0.000000 )
               b(2) = (  0.000000  1.076037  0.000000 )
               b(3) = (  0.000000  0.000000  0.920219 )

     PseudoPot. # 1 for Hf read from file:
     q-e/pseudo/hf_pbe_v1.uspp.F.UPF
     MD5 check sum: 8ee9378dfe14276e333edf04c5e4aa26
     Pseudo is Ultrasoft + core correction, Zval = 12.0
     Generated by new atomic code, or converted to UPF format
     Using radial grid of  921 points,  8 beta functions with:
                l(1) =   0
                l(2) =   0
                l(3) =   0
                l(4) =   1
                l(5) =   1
                l(6) =   2
                l(7) =   2
                l(8) =   3
     Q(r) pseudized with  6 coefficients,  rinner =    1.200   1.200   1.200
                                                       1.200   1.200   1.200
                                                       1.200

     PseudoPot. # 2 for Nb read from file:
     q-e/pseudo/nb_pbe_v1.uspp.F.UPF
     MD5 check sum: 573aab8a2fa660278ed4a62cd769473f
     Pseudo is Ultrasoft + core correction, Zval = 13.0
     Generated by new atomic code, or converted to UPF format
     Using radial grid of  887 points,  6 beta functions with:
                l(1) =   0
                l(2) =   0
                l(3) =   1
                l(4) =   1
                l(5) =   2
                l(6) =   2
     Q(r) pseudized with  6 coefficients,  rinner =    1.000   1.000   1.000
                                                       1.000   1.000

     PseudoPot. # 3 for Ta read from file:
     q-e/pseudo/ta_pbe_v1.uspp.F.UPF
     MD5 check sum: f8bbe9446314a3b8ea5d9f3e3836c939
     Pseudo is Ultrasoft + core correction, Zval = 13.0
     Generated by new atomic code, or converted to UPF format
     Using radial grid of  921 points,  7 beta functions with:
                l(1) =   0
                l(2) =   0
                l(3) =   1
                l(4) =   1
                l(5) =   2
                l(6) =   2
                l(7) =   3
     Q(r) pseudized with  6 coefficients,  rinner =    1.300   1.300   1.300
                                                       1.300   1.300   1.300
                                                       1.300

     PseudoPot. # 4 for Zr read from file:
     q-e/pseudo/zr_pbe_v1.uspp.F.UPF
     MD5 check sum: 5db81b1e868ab7776c4564c113de050b
     Pseudo is Ultrasoft + core correction, Zval = 12.0
     Generated by new atomic code, or converted to UPF format
     Using radial grid of  887 points,  6 beta functions with:
                l(1) =   0
                l(2) =   0
                l(3) =   1
                l(4) =   1
                l(5) =   2
                l(6) =   2
     Q(r) pseudized with  6 coefficients,  rinner =    1.200   1.200   1.200
                                                       1.200   1.200

     PseudoPot. # 5 for H  read from file:
     q-e/pseudo/h_pbe_v1.4.uspp.F.UPF
     MD5 check sum: 761ae9a214b05c3daf00ab9f6b793d6f
     Pseudo is Ultrasoft, Zval =  1.0
     Generated by new atomic code, or converted to UPF format
     Using radial grid of  615 points,  2 beta functions with:
                l(1) =   0
                l(2) =   0
     Q(r) pseudized with  8 coefficients,  rinner =    0.700

     atomic species   valence    mass     pseudopotential
        Hf            12.00   178.49000     Hf( 1.00)
        Nb            13.00    92.90637     Nb( 1.00)
        Ta            13.00   180.94788     Ta( 1.00)
        Zr            12.00    91.22400     Zr( 1.00)
        H              1.00     2.01400     H ( 1.00)

     Starting magnetic structure
     atomic species   magnetization
        Hf           0.000
        Nb           0.000
        Ta           0.000
        Zr           0.000
        H            0.000

     No symmetry found

   Cartesian axes

     site n.     atom                  positions (alat units)
         1           Hf  tau(   1) = (   0.2858672   0.3026898   0.7070626  )
         2           Hf  tau(   2) = (   0.1341532   0.1377178   0.5415917  )
         3           Hf  tau(   3) = (   0.1344204   0.7911996   0.5447610  )
         4           Hf  tau(   4) = (   0.4375813   0.1377178   0.5415917  )
         5           Hf  tau(   5) = (   0.4373140   0.7911996   0.5447610  )
         6           Nb  tau(   6) = (   0.2858672   0.2994572   0.3764008  )
         7           Nb  tau(   7) = (   0.2858672   0.6291626   0.7103852  )
         8           Ta  tau(   8) = (   0.1294832   0.4647675   0.5429471  )
         9           Ta  tau(   9) = (   0.4422513   0.4647675   0.5429471  )
        10           Ta  tau(  10) = (   0.1399628   0.1406984   0.2204260  )
        11           Ta  tau(  11) = (   0.1394848   0.1400847   0.8666573  )
        12           Ta  tau(  12) = (   0.1396156   0.7897030   0.2190832  )
        13           Ta  tau(  13) = (   0.1400119   0.7885528   0.8657390  )
        14           Ta  tau(  14) = (   0.4317717   0.1406984   0.2204260  )
        15           Ta  tau(  15) = (   0.4322496   0.1400847   0.8666573  )
        16           Ta  tau(  16) = (   0.4321189   0.7897030   0.2190832  )
        17           Ta  tau(  17) = (   0.4317226   0.7885528   0.8657390  )
        18           Zr  tau(  18) = (   0.2858672   0.6280820   0.3776642  )
        19           Zr  tau(  19) = (   0.1331729   0.4627493   0.2141328  )
        20           Zr  tau(  20) = (   0.1328036   0.4661802   0.8725649  )
        21           Zr  tau(  21) = (   0.4385616   0.4627493   0.2141328  )
        22           Zr  tau(  22) = (   0.4389309   0.4661802   0.8725649  )
        23           H   tau(  23) = (   0.6276957   0.5717345   0.5430600  )

     number of k points=     1  Gaussian smearing, width (Ry)=  0.0220
                       cart. coord. in units 2pi/alat
        k(    1) = (   0.0000000   0.0000000   0.0000000), wk =   1.0000000

     Check: negative core charge=   -0.000002
     Generating pointlists ...
     new r_m :   0.1117 (alat units)  1.9717 (a.u.) for type    1
     new r_m :   0.1098 (alat units)  1.9374 (a.u.) for type    2
     new r_m :   0.0883 (alat units)  1.5587 (a.u.) for type    3
     new r_m :   0.1112 (alat units)  1.9625 (a.u.) for type    4
     new r_m :   0.0883 (alat units)  1.5587 (a.u.) for type    5

     Initial potential from superposition of free atoms

     starting charge     266.9726, renormalised to     277.0000

     negative rho (up, down):  9.217E-01 9.217E-01
     Starting wfcs are  287 randomized atomic wfcs

     Self-consistent Calculation

     iteration #  1     ecut=   120.00 Ry     beta= 0.70
     Davidson diagonalization with overlap
     ethr =  1.00E-02,  avg # of iterations =  2.0

     negative rho (up, down):  9.951E-01 9.947E-01

     total energy              =   -2930.50861721 Ry
     estimated scf accuracy    <     277.28314626 Ry

     total magnetization       =    -0.00 Bohr mag/cell
     absolute magnetization    =     0.09 Bohr mag/cell

[...]

     Magnetic moment per site  (integrated on atomic sphere of radius R)
     atom   1 (R=0.112)  charge=  9.4614    0.0000
     atom   2 (R=0.112)  charge=  9.0592   -0.0003
     atom   3 (R=0.112)  charge=  9.0580   -0.0002
     atom   4 (R=0.112)  charge=  9.0577   -0.0001
     atom   5 (R=0.112)  charge=  9.0465   -0.0003
     atom   6 (R=0.110)  charge= 10.3477    0.0000
     atom   7 (R=0.110)  charge= 10.3473   -0.0004
     atom   8 (R=0.088)  charge=  8.1237    0.0001
     atom   9 (R=0.088)  charge=  8.1140   -0.0002
     atom  10 (R=0.088)  charge=  8.1046   -0.0017
     atom  11 (R=0.088)  charge=  8.1011   -0.0007
     atom  12 (R=0.088)  charge=  8.1046   -0.0008
     atom  13 (R=0.088)  charge=  8.1038   -0.0002
     atom  14 (R=0.088)  charge=  8.1041   -0.0012
     atom  15 (R=0.088)  charge=  8.0995   -0.0008
     atom  16 (R=0.088)  charge=  8.1058   -0.0022
     atom  17 (R=0.088)  charge=  8.1054   -0.0008
     atom  18 (R=0.111)  charge=  9.4533    0.0002
     atom  19 (R=0.111)  charge=  9.0036   -0.0013
     atom  20 (R=0.111)  charge=  8.9963   -0.0001
     atom  21 (R=0.111)  charge=  9.0062   -0.0013
     atom  22 (R=0.111)  charge=  8.9959    0.0000
     atom  23 (R=0.088)  charge=  0.9803   -0.0000

     End of self-consistent calculation

 ------ SPIN UP ------------

          k = 0.0000 0.0000 0.0000 ( 61588 PWs)   bands (ev):

   -60.7978 -60.7882 -60.7529 -60.7429 -60.7169 -60.7086 -60.6731 -60.6649
   -60.5406 -60.4047 -54.3967 -54.3505 -54.2699 -54.2243 -52.7171 -46.2784
   -46.2680 -41.6748 -41.6468 -41.5721 -41.5601 -39.8135 -27.7979 -27.7884
   -27.7141 -27.6998 -27.6102 -27.6042 -27.4823 -27.4729 -27.3867 -27.3475
   -27.3156 -27.2847 -27.2710 -27.2500 -27.2368 -27.1866 -27.1755 -27.1586
   -27.1135 -27.0734 -27.0178 -26.9753 -26.9682 -26.9595 -26.9536 -26.9087
   -26.8995 -26.8956 -26.8713 -26.8669 -24.1837 -23.9700 -23.6733 -23.5789
   -23.3270 -23.1939 -23.1682 -23.0704 -22.9448 -22.8668 -22.8488 -22.6270
   -22.5191 -22.4663 -22.4111 -22.3641 -22.2921 -22.2451 -21.7741 -21.7100
   -21.6463 -20.2339 -19.9552 -19.8854 -19.8641 -19.6410 -19.6204 -19.6166
[...]
     absolute magnetization    =     0.00 Bohr mag/cell

     convergence has been achieved in   5 iterations

     negative rho (up, down):  9.086E-01 9.086E-01

     Forces acting on atoms (cartesian axes, Ry/au):

     atom    1 type  1   force =    -0.01301237   -0.03651491    0.02314722
     atom    2 type  1   force =    -0.11464803   -0.01506618   -0.00343496
     atom    3 type  1   force =    -0.14403863    0.00831672    0.00125567
     atom    4 type  1   force =     0.11521471   -0.01669818   -0.00397934
     atom    5 type  1   force =     0.13833586    0.00690926    0.00149323
     atom    6 type  2   force =    -0.01237654   -0.02286010   -0.00138162
     atom    7 type  2   force =    -0.00311729    0.01326079   -0.00589668
     atom    8 type  3   force =    -0.13237502    0.01103072   -0.00397080
     atom    9 type  3   force =     0.15317106    0.03057201   -0.00649103
     atom   10 type  3   force =    -0.01849151   -0.02983150   -0.05874011
     atom   11 type  3   force =    -0.01640308   -0.03285134    0.05611930
     atom   12 type  3   force =    -0.02094875    0.03682896   -0.05309320
     atom   13 type  3   force =    -0.01939678    0.02919054    0.05952471
     atom   14 type  3   force =     0.02120866   -0.03384891   -0.05961407
     atom   15 type  3   force =     0.01755040   -0.03574291    0.05662948
     atom   16 type  3   force =     0.02099064    0.03746947   -0.05459259
     atom   17 type  3   force =     0.02101144    0.03034801    0.06146306
     atom   18 type  4   force =    -0.00145648    0.02106704   -0.01284912
     atom   19 type  4   force =    -0.12803120   -0.00540121   -0.11576087
     atom   20 type  4   force =    -0.13085629    0.00436703    0.11709400
     atom   21 type  4   force =     0.12921240   -0.00635111   -0.11604606
     atom   22 type  4   force =     0.13262927    0.00517676    0.11790723
     atom   23 type  5   force =     0.00582756    0.00062903    0.00121653
     The non-local contrib.  to forces
     atom    1 type  1   force =     0.00703352   -0.00702132    0.01686340
     atom    2 type  1   force =    -0.25644895   -0.15909571    0.01759680
     atom    3 type  1   force =    -0.25085257    0.16232132   -0.02626899
     atom    4 type  1   force =     0.25963670   -0.16452836    0.01679953
     atom    5 type  1   force =     0.25446931    0.16075384   -0.02725221
     atom    6 type  2   force =     0.00598582   -0.04279426   -0.05694939
     atom    7 type  2   force =     0.00403783    0.05861836    0.06009367
     atom    8 type  3   force =    -0.29234252    0.01019967   -0.00531822
     atom    9 type  3   force =     0.24917393    0.00151928    0.00007027
     atom   10 type  3   force =    -0.20159304    0.00088088   -0.21080999
     atom   11 type  3   force =    -0.21112673    0.00333535    0.19739189
     atom   12 type  3   force =    -0.22017162   -0.02170784   -0.17583096
     atom   13 type  3   force =    -0.23079884   -0.00823008    0.20257196
     atom   14 type  3   force =     0.19983017   -0.00080351   -0.20934411
     atom   15 type  3   force =     0.20733510    0.00341345    0.19559779
     atom   16 type  3   force =     0.21730157   -0.01905266   -0.17734829
     atom   17 type  3   force =     0.22938515   -0.00513036    0.20550100
     atom   18 type  4   force =     0.00146871    0.05251778   -0.06561185
     atom   19 type  4   force =     0.05916250    0.00997161    0.06737733
     atom   20 type  4   force =     0.05757062   -0.01488798   -0.06461542
     atom   21 type  4   force =    -0.06284416    0.01026027    0.07065389
     atom   22 type  4   force =    -0.06139377   -0.01341772   -0.06839081
     atom   23 type  5   force =     0.00120118    0.00063500   -0.00001743
     The ionic contribution  to forces
     atom    1 type  1   force =    -0.20263991   -4.93326134   14.58888972
     atom    2 type  1   force =   -39.63467618   -6.17336134    0.77832029
     atom    3 type  1   force =   -39.21468767    6.26673165   -0.71298115
     atom    4 type  1   force =    39.71931148   -6.33719830    0.77795168
     atom    5 type  1   force =    39.42958876    5.92759120   -0.71515961
     atom    6 type  2   force =    -0.20420361   -3.90855398  -14.51038845
     atom    7 type  2   force =     0.22392313    3.78416449   14.12976681
     atom    8 type  3   force =   -52.32523830    0.00843815   -0.06732897
     atom    9 type  3   force =    51.65028601    0.65681829   -0.03591309
     atom   10 type  3   force =   -35.98448685   -2.07532748  -23.13552661
     atom   11 type  3   force =   -35.05878647   -0.82760936   22.14008053
     atom   12 type  3   force =   -35.06582394    0.82351311  -22.23070640
     atom   13 type  3   force =   -35.84735080    2.20687443   23.16018215
     atom   14 type  3   force =    36.01994386   -2.08380903  -23.13722081
     atom   15 type  3   force =    35.09446851   -0.83572553   22.14113830
     atom   16 type  3   force =    35.14017855    0.76292180  -22.15611628
     atom   17 type  3   force =    35.92261383    2.14597151   23.08475738
     atom   18 type  4   force =     0.20755175    4.54695968  -14.04548236
     atom   19 type  4   force =   -35.78616869    0.91983926  -25.62061596
     atom   20 type  4   force =   -35.76454494   -0.98687361   25.59830812
     atom   21 type  4   force =    35.91258837    0.99443393  -25.51685669
     atom   22 type  4   force =    35.89136405   -0.91462662   25.48994295
     atom   23 type  5   force =    -0.12321093    0.03208909   -0.00504154
     The local contribution  to forces
     atom    1 type  1   force =     0.17785350    4.90205873  -14.58461672
     atom    2 type  1   force =    39.78521257    6.31773466   -0.80543943
     atom    3 type  1   force =    39.31900975   -6.42792833    0.73705363
     atom    4 type  1   force =   -39.87900816    6.48590000   -0.80468143
     atom    5 type  1   force =   -39.56273786   -6.08142490    0.73959513
     atom    6 type  2   force =     0.18030290    3.92456439   14.54988062
     atom    7 type  2   force =    -0.23948167   -3.82704111  -14.19936809
     atom    8 type  3   force =    52.51275185   -0.00615076    0.06364657
     atom    9 type  3   force =   -51.78788753   -0.63324918    0.02548569
     atom   10 type  3   force =    36.18544741    2.03222754   23.30025447
     atom   11 type  3   force =    35.27596664    0.78334691  -22.29703143
     atom   12 type  3   force =    35.28254082   -0.75159164   22.36542344
     atom   13 type  3   force =    36.07868556   -2.16112728  -23.31903581
     atom   14 type  3   force =   -36.22207099    2.03652053   23.29796967
     atom   15 type  3   force =   -35.31241315    0.78938694  -22.29422386
     atom   16 type  3   force =   -35.36184115   -0.68950883   22.28823432
     atom   17 type  3   force =   -36.16039517   -2.09965962  -23.24110074
     atom   18 type  4   force =    -0.21823490   -4.57391191   14.08265718
     atom   19 type  4   force =    35.60339668   -0.93561557   25.44420760
     atom   20 type  4   force =    35.58494438    1.00516358  -25.42513662
     atom   21 type  4   force =   -35.73341211   -1.01274425   25.33450597
     atom   22 type  4   force =   -35.71410314    0.92987194  -25.31021163
     atom   23 type  5   force =     0.12986967   -0.03064675    0.00420405
     The core correction contribution to forces
     atom    1 type  1   force =     0.00095872    0.00145400   -0.00151871
     atom    2 type  1   force =    -0.01261424   -0.00150376    0.00080265
     atom    3 type  1   force =    -0.00930884    0.00589952   -0.00148964
     atom    4 type  1   force =     0.01355963   -0.00198339    0.00071056
     atom    5 type  1   force =     0.01031546    0.00586335   -0.00151912
     atom    6 type  2   force =    -0.00038164    0.00199857    0.00220567
     atom    7 type  2   force =    -0.00019894   -0.00306520   -0.00234274
     atom    8 type  3   force =    -0.03360537    0.00044940   -0.00045806
     atom    9 type  3   force =     0.03111050    0.00031679   -0.00032935
     atom   10 type  3   force =    -0.02182733    0.00904492   -0.01607587
     atom   11 type  3   force =    -0.02341865    0.00922221    0.01649330
     atom   12 type  3   force =    -0.02387411   -0.00983736   -0.01483095
     atom   13 type  3   force =    -0.02379768   -0.00920179    0.01579193
     atom   14 type  3   force =     0.02156746    0.00917166   -0.01576389
     atom   15 type  3   force =     0.02313246    0.00944735    0.01609933
     atom   16 type  3   force =     0.02341092   -0.01006722   -0.01484512
     atom   17 type  3   force =     0.02351948   -0.00935995    0.01573799
     atom   18 type  4   force =    -0.00007994   -0.00297249    0.00309759
     atom   19 type  4   force =    -0.00980366    0.00001669   -0.00922281
     atom   20 type  4   force =    -0.00980968    0.00045382    0.00912304
     atom   21 type  4   force =     0.01005466    0.00000945   -0.00939560
     atom   22 type  4   force =     0.01010762    0.00038616    0.00933816
     atom   23 type  5   force =     0.00000000    0.00000000    0.00000000
     The Hubbard contrib.    to forces
     atom    1 type  1   force =     0.00000000    0.00000000    0.00000000
     atom    2 type  1   force =     0.00000000    0.00000000    0.00000000
     atom    3 type  1   force =     0.00000000    0.00000000    0.00000000
     atom    4 type  1   force =     0.00000000    0.00000000    0.00000000
     atom    5 type  1   force =     0.00000000    0.00000000    0.00000000
     atom    6 type  2   force =     0.00000000    0.00000000    0.00000000
     atom    7 type  2   force =     0.00000000    0.00000000    0.00000000
     atom    8 type  3   force =     0.00000000    0.00000000    0.00000000
     atom    9 type  3   force =     0.00000000    0.00000000    0.00000000
     atom   10 type  3   force =     0.00000000    0.00000000    0.00000000
     atom   11 type  3   force =     0.00000000    0.00000000    0.00000000
     atom   12 type  3   force =     0.00000000    0.00000000    0.00000000
     atom   13 type  3   force =     0.00000000    0.00000000    0.00000000
     atom   14 type  3   force =     0.00000000    0.00000000    0.00000000
     atom   15 type  3   force =     0.00000000    0.00000000    0.00000000
     atom   16 type  3   force =     0.00000000    0.00000000    0.00000000
     atom   17 type  3   force =     0.00000000    0.00000000    0.00000000
     atom   18 type  4   force =     0.00000000    0.00000000    0.00000000
     atom   19 type  4   force =     0.00000000    0.00000000    0.00000000
     atom   20 type  4   force =     0.00000000    0.00000000    0.00000000
     atom   21 type  4   force =     0.00000000    0.00000000    0.00000000
     atom   22 type  4   force =     0.00000000    0.00000000    0.00000000
     atom   23 type  5   force =     0.00000000    0.00000000    0.00000000
     The SCF correction term to forces
     atom    1 type  1   force =     0.00299548    0.00024906    0.00276103
     atom    2 type  1   force =     0.00309246    0.00115400    0.00451623
     atom    3 type  1   force =     0.01101439    0.00128660    0.00417331
     atom    4 type  1   force =     0.00092875    0.00110590    0.00447184
     atom    5 type  1   force =     0.00591387   -0.00588019    0.00506054
     atom    6 type  2   force =     0.00513367    0.00191922    0.01310143
     atom    7 type  2   force =     0.00781605    0.00057829    0.00518518
     atom    8 type  3   force =     0.00527301   -0.00191170    0.00471938
     atom    9 type  3   force =     0.00970184    0.00516088    0.00342695
     atom   10 type  3   force =     0.00318198    0.00333668    0.00264939
     atom   11 type  3   force =     0.00017582   -0.00115240   -0.00158348
     atom   12 type  3   force =     0.00559378   -0.00355326    0.00208317
     atom   13 type  3   force =     0.00307867    0.00086930   -0.00075400
     atom   14 type  3   force =     0.00115185    0.00506548    0.00397657
     atom   15 type  3   force =     0.00424117   -0.00227109   -0.00275058
     atom   16 type  3   force =     0.00115444   -0.00682958    0.00471430
     atom   17 type  3   force =     0.00510184   -0.00147954   -0.00420107
     atom   18 type  4   force =     0.00705158   -0.00153198    0.01172182
     atom   19 type  4   force =     0.00459567    0.00038084    0.00172449
     atom   20 type  4   force =     0.00019703    0.00050526   -0.00135361
     atom   21 type  4   force =     0.00203932    0.00168354    0.00427788
     atom   22 type  4   force =     0.00586820    0.00295704   -0.00353994
     atom   23 type  5   force =    -0.00281867   -0.00145426    0.00130296

     Total force =     0.522981     Total SCF correction =     0.037030

     Computing stress (Cartesian axis) and pressure

     negative rho (up, down):  9.086E-01 9.086E-01
          total   stress  (Ry/bohr**3)                   (kbar)     P=       82.49
   0.00062448   0.00000601  -0.00000078           91.86        0.88       -0.11
   0.00000601   0.00066149  -0.00001272            0.88       97.31       -1.87
  -0.00000078  -0.00001272   0.00039625           -0.11       -1.87       58.29

     Entering Dynamics:    iteration =    20
                           time      =   0.0041 pico-seconds

ATOMIC_POSITIONS (angstrom)
Hf            2.6731060421        2.8286517027        6.6040841766
Hf            1.2547260848        1.2878779853        5.0584302168
Hf            1.2571949537        7.3917120812        5.0881037895
Hf            4.0914796249        1.2879293787        5.0584331793
Hf            4.0890798224        7.3915362532        5.0881142756
Nb            2.6731179221        2.7983807785        3.5157296423
Nb            2.6730885336        5.8784215074        6.6346639653
Ta            1.2111219064        4.3428162215        5.0710711507
Ta            4.0584926578        4.2976258944        5.0709427693
Ta            1.3100742303        1.3155605953        2.0580979675
Ta            1.3056332756        1.3097613640        8.0952115884
Ta            1.3068872602        7.3780185725        2.0456028727
Ta            1.3105643289        7.3671995332        8.0866939932
Ta            4.0360393266        1.3155578873        2.0580940362
Ta            4.0404951795        1.3097846397        8.0952120285
Ta            4.0392560833        7.3780260160        2.0456253711
Ta            4.0355623386        7.3672152454        8.0866778488
Zr            2.6730785583        5.8685589454        3.5272726613
Zr            1.2439732244        4.3237332592        1.9974051462
Zr            1.2404407414        4.3560206960        8.1523925233
Zr            4.1020878625        4.3236559346        1.9974539481
Zr            4.1056607036        4.3559787401        8.1523198771
H             7.6261042691        6.4523402624        5.0908486355

     kinetic energy (Ekin) =          15.96399958 Ry
     temperature           =       76379.27825457 K
     Ekin + Etot (const)   =       -2926.97657759 Ry
     Ions kinetic stress =          281.94 (kbar)
                                    617.57         375.24           3.48
                                    375.24         228.09           2.12
                                      3.48           2.12           0.16

     Linear momentum :   -0.0000000000   -0.0000000000   -0.0000000000

     The maximum number of steps has been reached.

     End of molecular dynamics calculation

     diffusion coefficients :
     atom     1   D =       0.00000005 cm^2/s
     atom     2   D =       0.00000002 cm^2/s
     atom     3   D =       0.00000003 cm^2/s
     atom     4   D =       0.00000009 cm^2/s
     atom     5   D =       0.00000010 cm^2/s
     atom     6   D =       0.00000005 cm^2/s
     atom     7   D =       0.00000006 cm^2/s
     atom     8   D =       0.00000003 cm^2/s
     atom     9   D =       0.00002903 cm^2/s
     atom    10   D =       0.00000004 cm^2/s
     atom    11   D =       0.00000004 cm^2/s
     atom    12   D =       0.00000006 cm^2/s
     atom    13   D =       0.00000005 cm^2/s
     atom    14   D =       0.00000005 cm^2/s
     atom    15   D =       0.00000005 cm^2/s
     atom    16   D =       0.00000007 cm^2/s
     atom    17   D =       0.00000006 cm^2/s
     atom    18   D =       0.00000006 cm^2/s
     atom    19   D =       0.00000004 cm^2/s
     atom    20   D =       0.00000004 cm^2/s
     atom    21   D =       0.00000018 cm^2/s
     atom    22   D =       0.00000019 cm^2/s
     atom    23   D =       0.01782979 cm^2/s

     < D > =       0.00077653 cm^2/s

     Writing all to output data dir outdir/pwscf.save/

     General routines

     Parallel routines

   This run was terminated on:  22:12: 6  14Jun2023

   JOB DONE.