     Program PWSCF v.7.2 starts on 11Jun2023 at 21:48: 1

     Reading input from md_data/md_Hf5Nb2Ta10Zr5H_20steps_100eV_incident45_polar60.in
Warning: card &CELL ignored
Warning: card / ignored

     Current dimensions of program PWSCF are:
     Max number of different atomic species (ntypx) = 10
     Max number of k-points (npk) =  40000
     Max angular momentum in pseudopotentials (lmaxx) =  4

     File outdir/pwscf.md deleted, as requested

     gamma-point specific algorithms are used

     R & G space division:  proc/nbgrp/npool/nimage =      42
     Subspace diagonalization in iterative solution of the eigenvalue problem:
     one sub-group per band group will be used

     Using Slab Decomposition

     bravais-lattice index     =            0
     lattice parameter (alat)  =      16.1383  a.u.
     unit-cell volume          =    5077.2634 (a.u.)^3
     number of atoms/cell      =           23
     number of atomic types    =            5
     number of electrons       =       277.00
     number of Kohn-Sham states=          167
     kinetic-energy cutoff     =     120.0000  Ry
     charge density cutoff     =     480.0000  Ry
     scf convergence threshold =      1.0E-03
     mixing beta               =       0.7000
     number of iterations used =            8  TF        mixing
     energy convergence thresh.=      0.0E+00
     force convergence thresh. =      0.0E+00
     Exchange-correlation=  SLA  PW   PBX  PBC
                           (   1   4   3   4   0   0   0)
     nstep                     =           20

     celldm(1)=  16.138261  celldm(2)=   0.000000  celldm(3)=   0.000000
     celldm(4)=   0.000000  celldm(5)=   0.000000  celldm(6)=   0.000000

     crystal axes: (cart. coord. in units of alat)
               a(1) = (   1.000000   0.000000   0.000000 )
               a(2) = (   0.000000   1.016393   0.000000 )
               a(3) = (   0.000000   0.000000   1.188496 )

     reciprocal axes: (cart. coord. in units 2 pi/alat)
               b(1) = (  1.000000  0.000000  0.000000 )
               b(2) = (  0.000000  0.983871  0.000000 )
               b(3) = (  0.000000  0.000000  0.841400 )

     PseudoPot. # 1 for Hf read from file:
     q-e/pseudo/hf_pbe_v1.uspp.F.UPF
     MD5 check sum: 8ee9378dfe14276e333edf04c5e4aa26
     Pseudo is Ultrasoft + core correction, Zval = 12.0
     Generated by new atomic code, or converted to UPF format
     Using radial grid of  921 points,  8 beta functions with:
                l(1) =   0
                l(2) =   0
                l(3) =   0
                l(4) =   1
                l(5) =   1
                l(6) =   2
                l(7) =   2
                l(8) =   3
     Q(r) pseudized with  6 coefficients,  rinner =    1.200   1.200   1.200
                                                       1.200   1.200   1.200
                                                       1.200

     PseudoPot. # 2 for Nb read from file:
     q-e/pseudo/nb_pbe_v1.uspp.F.UPF
     MD5 check sum: 573aab8a2fa660278ed4a62cd769473f
     Pseudo is Ultrasoft + core correction, Zval = 13.0
     Generated by new atomic code, or converted to UPF format
     Using radial grid of  887 points,  6 beta functions with:
                l(1) =   0
                l(2) =   0
                l(3) =   1
                l(4) =   1
                l(5) =   2
                l(6) =   2
     Q(r) pseudized with  6 coefficients,  rinner =    1.000   1.000   1.000
                                                       1.000   1.000

     PseudoPot. # 3 for Ta read from file:
     q-e/pseudo/ta_pbe_v1.uspp.F.UPF
     MD5 check sum: f8bbe9446314a3b8ea5d9f3e3836c939
     Pseudo is Ultrasoft + core correction, Zval = 13.0
     Generated by new atomic code, or converted to UPF format
     Using radial grid of  921 points,  7 beta functions with:
                l(1) =   0
                l(2) =   0
                l(3) =   1
                l(4) =   1
                l(5) =   2
                l(6) =   2
                l(7) =   3
     Q(r) pseudized with  6 coefficients,  rinner =    1.300   1.300   1.300
                                                       1.300   1.300   1.300
                                                       1.300

     PseudoPot. # 4 for Zr read from file:
     q-e/pseudo/zr_pbe_v1.uspp.F.UPF
     MD5 check sum: 5db81b1e868ab7776c4564c113de050b
     Pseudo is Ultrasoft + core correction, Zval = 12.0
     Generated by new atomic code, or converted to UPF format
     Using radial grid of  887 points,  6 beta functions with:
                l(1) =   0
                l(2) =   0
                l(3) =   1
                l(4) =   1
                l(5) =   2
                l(6) =   2
     Q(r) pseudized with  6 coefficients,  rinner =    1.200   1.200   1.200
                                                       1.200   1.200

     PseudoPot. # 5 for H  read from file:
     q-e/pseudo/h_pbe_v1.4.uspp.F.UPF
     MD5 check sum: 761ae9a214b05c3daf00ab9f6b793d6f
     Pseudo is Ultrasoft, Zval =  1.0
     Generated by new atomic code, or converted to UPF format
     Using radial grid of  615 points,  2 beta functions with:
                l(1) =   0
                l(2) =   0
     Q(r) pseudized with  8 coefficients,  rinner =    0.700

     atomic species   valence    mass     pseudopotential
        Hf            12.00   178.49000     Hf( 1.00)
        Nb            13.00    92.90637     Nb( 1.00)
        Ta            13.00   180.94788     Ta( 1.00)
        Zr            12.00    91.22400     Zr( 1.00)
        H              1.00     2.01400     H ( 1.00)

     Starting magnetic structure
     atomic species   magnetization
        Hf           0.000
        Nb           0.000
        Ta           0.000
        Zr           0.000
        H            0.000

     No symmetry found

   Cartesian axes

     site n.     atom                  positions (alat units)
         1           Hf  tau(   1) = (   0.3126464   0.3310449   0.7732979  )
         2           Hf  tau(   2) = (   0.1467202   0.1506188   0.5923263  )
         3           Hf  tau(   3) = (   0.1470125   0.8653167   0.5957925  )
         4           Hf  tau(   4) = (   0.4785725   0.1506188   0.5923263  )
         5           Hf  tau(   5) = (   0.4782802   0.8653167   0.5957925  )
         6           Nb  tau(   6) = (   0.3126464   0.3275094   0.4116608  )
         7           Nb  tau(   7) = (   0.3126464   0.6881006   0.7769319  )
         8           Ta  tau(   8) = (   0.1416128   0.5083054   0.5938087  )
         9           Ta  tau(   9) = (   0.4836800   0.5083054   0.5938087  )
        10           Ta  tau(  10) = (   0.1530741   0.1538785   0.2410748  )
        11           Ta  tau(  11) = (   0.1525513   0.1532074   0.9478430  )
        12           Ta  tau(  12) = (   0.1526943   0.8636799   0.2396062  )
        13           Ta  tau(  13) = (   0.1531277   0.8624219   0.9468387  )
        14           Ta  tau(  14) = (   0.4722187   0.1538785   0.2410748  )
        15           Ta  tau(  15) = (   0.4727414   0.1532074   0.9478430  )
        16           Ta  tau(  16) = (   0.4725984   0.8636799   0.2396062  )
        17           Ta  tau(  17) = (   0.4721650   0.8624219   0.9468387  )
        18           Zr  tau(  18) = (   0.3126464   0.6869187   0.4130426  )
        19           Zr  tau(  19) = (   0.1456481   0.5060981   0.2341920  )
        20           Zr  tau(  20) = (   0.1452442   0.5098505   0.9543040  )
        21           Zr  tau(  21) = (   0.4796447   0.5060981   0.2341920  )
        22           Zr  tau(  22) = (   0.4800486   0.5098505   0.9543040  )
        23           H   tau(  23) = (   0.6161590   0.5744362   0.7086623  )

     number of k points=     1  Gaussian smearing, width (Ry)=  0.0220
                       cart. coord. in units 2pi/alat
        k(    1) = (   0.0000000   0.0000000   0.0000000), wk =   1.0000000

     Check: negative core charge=   -0.000002
     Generating pointlists ...
     new r_m :   0.1222 (alat units)  1.9717 (a.u.) for type    1
     new r_m :   0.1201 (alat units)  1.9374 (a.u.) for type    2
     new r_m :   0.0773 (alat units)  1.2475 (a.u.) for type    3
     new r_m :   0.1189 (alat units)  1.9183 (a.u.) for type    4
     new r_m :   0.0773 (alat units)  1.2475 (a.u.) for type    5

     Initial potential from superposition of free atoms

     starting charge     266.9726, renormalised to     277.0000

     negative rho (up, down):  9.226E-01 9.226E-01
     Starting wfcs are  287 randomized atomic wfcs

     Self-consistent Calculation

     iteration #  1     ecut=   120.00 Ry     beta= 0.70
     Davidson diagonalization with overlap
     ethr =  1.00E-02,  avg # of iterations =  2.0

     negative rho (up, down):  9.861E-01 9.861E-01

     total energy              =   -2931.88385279 Ry
     estimated scf accuracy    <     287.28319107 Ry

     total magnetization       =     0.00 Bohr mag/cell
     absolute magnetization    =     0.11 Bohr mag/cell

[...]

     Magnetic moment per site  (integrated on atomic sphere of radius R)
     atom   1 (R=0.122)  charge=  9.4632    0.0002
     atom   2 (R=0.122)  charge=  9.0563    0.0001
     atom   3 (R=0.122)  charge=  9.0557    0.0000
     atom   4 (R=0.122)  charge=  9.0583   -0.0001
     atom   5 (R=0.122)  charge=  9.0602    0.0005
     atom   6 (R=0.120)  charge= 10.3501   -0.0006
     atom   7 (R=0.120)  charge= 10.3525    0.0003
     atom   8 (R=0.077)  charge=  5.9499    0.0000
     atom   9 (R=0.077)  charge=  5.9673   -0.0001
     atom  10 (R=0.077)  charge=  5.9322    0.0025
     atom  11 (R=0.077)  charge=  5.9318    0.0005
     atom  12 (R=0.077)  charge=  5.9309    0.0026
     atom  13 (R=0.077)  charge=  5.9321    0.0008
     atom  14 (R=0.077)  charge=  5.9327    0.0010
     atom  15 (R=0.077)  charge=  5.9320    0.0002
     atom  16 (R=0.077)  charge=  5.9319    0.0031
     atom  17 (R=0.077)  charge=  5.9337    0.0006
     atom  18 (R=0.119)  charge=  9.2641   -0.0005
     atom  19 (R=0.119)  charge=  8.8489    0.0041
     atom  20 (R=0.119)  charge=  8.8479    0.0000
     atom  21 (R=0.119)  charge=  8.8469    0.0036
     atom  22 (R=0.119)  charge=  8.8446   -0.0002
     atom  23 (R=0.077)  charge=  0.9007    0.0000

     End of self-consistent calculation

 ------ SPIN UP ------------

          k = 0.0000 0.0000 0.0000 ( 56324 PWs)   bands (ev):

   -59.7711 -59.7662 -59.7214 -59.7213 -59.6885 -59.6785 -59.6400 -59.6391
   -59.4731 -59.1885 -53.3664 -53.3212 -53.2372 -53.1916 -51.6577 -45.2473
   -45.2265 -40.6248 -40.5848 -40.5241 -40.4808 -38.7670 -26.7673 -26.7622
   -26.6787 -26.6781 -26.5825 -26.5779 -26.4554 -26.4469 -26.3379 -26.3174
   -26.2725 -26.2509 -26.2464 -26.2146 -26.2052 -26.1500 -26.1437 -26.1107
   -26.0336 -25.9486 -25.9463 -25.9449 -25.9306 -25.8999 -25.8752 -25.8657
   -25.8520 -25.8426 -25.8372 -25.8343 -23.1481 -22.9389 -22.6347 -22.5513
   -22.2907 -22.1626 -22.1444 -22.0371 -21.9078 -21.8466 -21.8189 -21.6020
   -21.4829 -21.4327 -21.3714 -21.3362 -21.2494 -21.2079 -20.7258 -20.6555
   -20.5902 -19.1539 -18.9151 -18.7937 -18.7721 -18.6138 -18.5741 -18.5641
[...]

     convergence has been achieved in   4 iterations

     negative rho (up, down):  9.094E-01 9.094E-01

     Forces acting on atoms (cartesian axes, Ry/au):

     atom    1 type  1   force =     0.00095114   -0.01711500    0.00331066
     atom    2 type  1   force =    -0.12173407   -0.01451942   -0.01076372
     atom    3 type  1   force =    -0.11893423    0.01081430   -0.00597192
     atom    4 type  1   force =     0.11865914   -0.01479782   -0.01435428
     atom    5 type  1   force =     0.12102201    0.01401104   -0.00475673
     atom    6 type  2   force =    -0.00795434   -0.02011385    0.00196716
     atom    7 type  2   force =    -0.02472525    0.01187920   -0.00373546
     atom    8 type  3   force =    -0.12142441    0.00890152    0.00368393
     atom    9 type  3   force =    -0.11538846   -0.14149744   -0.24489296
     atom   10 type  3   force =    -0.02297699   -0.03161489   -0.05339992
     atom   11 type  3   force =    -0.02506712   -0.03220724    0.06271014
     atom   12 type  3   force =    -0.02111020    0.03510753   -0.05372489
     atom   13 type  3   force =    -0.01389443    0.02707578    0.06691450
     atom   14 type  3   force =     0.02430315   -0.02679070   -0.05297974
     atom   15 type  3   force =     0.02145982   -0.03577762    0.05995715
     atom   16 type  3   force =     0.02132563    0.03373175   -0.04786199
     atom   17 type  3   force =     0.01174502    0.03658341    0.06202680
     atom   18 type  4   force =    -0.00120385    0.02740410   -0.01320490
     atom   19 type  4   force =    -0.13540324   -0.00377247   -0.11248121
     atom   20 type  4   force =    -0.13385365    0.00493969    0.11369787
     atom   21 type  4   force =     0.13400963   -0.00657524   -0.11703413
     atom   22 type  4   force =     0.14863896    0.00641838    0.10354560
     atom   23 type  5   force =     0.26155574    0.12791498    0.25734805
     The non-local contrib.  to forces
     atom    1 type  1   force =     0.00146034   -0.01047417    0.02900622
     atom    2 type  1   force =    -0.24950827   -0.16439493    0.01015585
     atom    3 type  1   force =    -0.24559894    0.15646104   -0.02771235
     atom    4 type  1   force =     0.24949658   -0.16390109    0.02094325
     atom    5 type  1   force =     0.25944614    0.14395960   -0.01583143
     atom    6 type  2   force =     0.01264649   -0.06756855   -0.06292147
     atom    7 type  2   force =    -0.01150671    0.07555485    0.05931086
     atom    8 type  3   force =    -0.25060319    0.00291718   -0.00437281
     atom    9 type  3   force =     0.15513852   -0.03000527   -0.06882681
     atom   10 type  3   force =    -0.22248504    0.00083376   -0.21495361
     atom   11 type  3   force =    -0.22568999    0.01739536    0.20051926
     atom   12 type  3   force =    -0.21115427   -0.02470062   -0.18029066
     atom   13 type  3   force =    -0.21253053   -0.01376880    0.20801538
     atom   14 type  3   force =     0.21855123    0.00789792   -0.22226175
     atom   15 type  3   force =     0.22762487    0.00675024    0.19032482
     atom   16 type  3   force =     0.20331970   -0.02184245   -0.18817061
     atom   17 type  3   force =     0.22910566   -0.01328478    0.19012605
     atom   18 type  4   force =    -0.00386937    0.06866422   -0.06352765
     atom   19 type  4   force =     0.06399260    0.00918827    0.07466307
     atom   20 type  4   force =     0.05723138   -0.01591497   -0.05925105
     atom   21 type  4   force =    -0.06299286    0.01553359    0.07086991
     atom   22 type  4   force =    -0.05646762   -0.01053073   -0.07059929
     atom   23 type  5   force =    -0.07807221   -0.04116420   -0.06304811
     The ionic contribution  to forces
     atom    1 type  1   force =    -0.37902129   -4.86556252   14.31090967
     atom    2 type  1   force =   -35.67949446   -6.18341633    0.72159993
     atom    3 type  1   force =   -35.68352964    6.23109598   -0.78440449
     atom    4 type  1   force =    35.52758089   -6.33751143    0.65876775
     atom    5 type  1   force =    35.36891775    6.68356187   -0.94994420
     atom    6 type  2   force =    -0.18192903   -3.64704776  -14.34009877
     atom    7 type  2   force =    -0.72195696    3.85423440   14.35876318
     atom    8 type  3   force =   -47.65674731    0.01491612   -0.19463153
     atom    9 type  3   force =    45.05644728   -1.16406955   -2.34157226
     atom   10 type  3   force =   -32.18056748   -2.09145601  -23.43172892
     atom   11 type  3   force =   -31.26640795   -0.86626822   22.47599912
     atom   12 type  3   force =   -31.37294923    0.81478895  -22.49944326
     atom   13 type  3   force =   -32.18881852    2.25204981   23.48275091
     atom   14 type  3   force =    32.12257176   -2.11786135  -23.47404559
     atom   15 type  3   force =    31.14571668   -0.95712942   22.56937129
     atom   16 type  3   force =    31.29832813    0.86405634  -22.56835245
     atom   17 type  3   force =    31.98333056    2.47195745   23.68503972
     atom   18 type  4   force =    -0.24942255    4.41013020  -14.35294438
     atom   19 type  4   force =   -32.13382978    0.94030241  -25.85579012
     atom   20 type  4   force =   -32.15528708   -0.99187995   25.92481312
     atom   21 type  4   force =    32.02867697    0.91918516  -25.99186858
     atom   22 type  4   force =    31.66679750   -1.15519117   26.67488176
     atom   23 type  5   force =     5.65159375    0.92111503    1.92192809
     The local contribution  to forces
     atom    1 type  1   force =     0.37990513    4.86428562  -14.35545482
     atom    2 type  1   force =    35.81860981    6.33623475   -0.77283062
     atom    3 type  1   force =    35.82161191   -6.38078705    0.77701389
     atom    4 type  1   force =   -35.66977454    6.49334545   -0.72621056
     atom    5 type  1   force =   -35.52041824   -6.81868237    0.93026647
     atom    6 type  2   force =     0.16389537    3.69229734   14.38912440
     atom    7 type  2   force =     0.70713767   -3.92310301  -14.44432878
     atom    8 type  3   force =    47.81979741   -0.00951356    0.17110772
     atom    9 type  3   force =   -45.34112545    1.05516902    2.14562312
     atom   10 type  3   force =    32.39708106    2.03846380   23.61331725
     atom   11 type  3   force =    31.49339697    0.80951004  -22.62120954
     atom   12 type  3   force =    31.57966660   -0.73742721   22.64548495
     atom   13 type  3   force =    32.40876672   -2.20514855  -23.62914339
     atom   14 type  3   force =   -32.33856285    2.07000478   23.66841359
     atom   15 type  3   force =   -31.37972547    0.91299596  -22.70614556
     atom   16 type  3   force =   -31.50554583   -0.79385325   22.73265286
     atom   17 type  3   force =   -32.23011064   -2.41684245  -23.81927689
     atom   18 type  4   force =     0.25058790   -4.44629396   14.38515929
     atom   19 type  4   force =    31.93856061   -0.95054124   25.68453293
     atom   20 type  4   force =    31.97601991    1.01340652  -25.75437600
     atom   21 type  4   force =   -31.83782234   -0.94118678   25.82481743
     atom   22 type  4   force =   -31.47215920    1.16942489  -26.51048138
     atom   23 type  5   force =    -5.31120222   -0.75222278   -1.60505800
     The core correction contribution to forces
     atom    1 type  1   force =     0.00133854    0.00119907   -0.00082900
     atom    2 type  1   force =    -0.01188049   -0.00177811    0.00027844
     atom    3 type  1   force =    -0.01261661    0.00229941   -0.00182098
     atom    4 type  1   force =     0.01175729   -0.00206583    0.00270856
     atom    5 type  1   force =     0.01279518    0.00147271   -0.00046423
     atom    6 type  2   force =    -0.00033436    0.00369442    0.00301211
     atom    7 type  2   force =     0.00070072   -0.00374248   -0.00215318
     atom    8 type  3   force =    -0.02933453    0.00078533    0.00063024
     atom    9 type  3   force =     0.01359513   -0.00516745   -0.01301420
     atom   10 type  3   force =    -0.02191855    0.00863051   -0.01557211
     atom   11 type  3   force =    -0.02550628    0.00926949    0.01866820
     atom   12 type  3   force =    -0.02177401   -0.01022060   -0.01478134
     atom   13 type  3   force =    -0.02244097   -0.00961059    0.01616771
     atom   14 type  3   force =     0.02216409    0.00818814   -0.01671872
     atom   15 type  3   force =     0.02475772    0.00943133    0.01453268
     atom   16 type  3   force =     0.02220471   -0.00956542   -0.01583435
     atom   17 type  3   force =     0.02343633   -0.00846211    0.01506918
     atom   18 type  4   force =     0.00031707   -0.00359771    0.00301600
     atom   19 type  4   force =    -0.00993350    0.00007087   -0.00972216
     atom   20 type  4   force =    -0.00957132    0.00050832    0.00891177
     atom   21 type  4   force =     0.00981531   -0.00026059   -0.00953840
     atom   22 type  4   force =     0.00988444    0.00048678    0.00908812
     atom   23 type  5   force =     0.00000000    0.00000000    0.00000000
     The Hubbard contrib.    to forces
     atom    1 type  1   force =     0.00000000    0.00000000    0.00000000
     atom    2 type  1   force =     0.00000000    0.00000000    0.00000000
     atom    3 type  1   force =     0.00000000    0.00000000    0.00000000
     atom    4 type  1   force =     0.00000000    0.00000000    0.00000000
     atom    5 type  1   force =     0.00000000    0.00000000    0.00000000
     atom    6 type  2   force =     0.00000000    0.00000000    0.00000000
     atom    7 type  2   force =     0.00000000    0.00000000    0.00000000
     atom    8 type  3   force =     0.00000000    0.00000000    0.00000000
     atom    9 type  3   force =     0.00000000    0.00000000    0.00000000
     atom   10 type  3   force =     0.00000000    0.00000000    0.00000000
     atom   11 type  3   force =     0.00000000    0.00000000    0.00000000
     atom   12 type  3   force =     0.00000000    0.00000000    0.00000000
     atom   13 type  3   force =     0.00000000    0.00000000    0.00000000
     atom   14 type  3   force =     0.00000000    0.00000000    0.00000000
     atom   15 type  3   force =     0.00000000    0.00000000    0.00000000
     atom   16 type  3   force =     0.00000000    0.00000000    0.00000000
     atom   17 type  3   force =     0.00000000    0.00000000    0.00000000
     atom   18 type  4   force =     0.00000000    0.00000000    0.00000000
     atom   19 type  4   force =     0.00000000    0.00000000    0.00000000
     atom   20 type  4   force =     0.00000000    0.00000000    0.00000000
     atom   21 type  4   force =     0.00000000    0.00000000    0.00000000
     atom   22 type  4   force =     0.00000000    0.00000000    0.00000000
     atom   23 type  5   force =     0.00000000    0.00000000    0.00000000
     The SCF correction term to forces
     atom    1 type  1   force =    -0.00000000   -0.00000000    0.00000000
     atom    2 type  1   force =     0.00000000   -0.00000000    0.00000000
     atom    3 type  1   force =     0.00000000    0.00000000    0.00000000
     atom    4 type  1   force =    -0.00000000   -0.00000000    0.00000000
     atom    5 type  1   force =     0.00000000    0.00000000    0.00000000
     atom    6 type  2   force =    -0.00000000   -0.00000000    0.00000000
     atom    7 type  2   force =     0.00000000    0.00000000    0.00000000
     atom    8 type  3   force =    -0.00000000   -0.00000000    0.00000000
     atom    9 type  3   force =     0.00000000    0.00000000    0.00000000
     atom   10 type  3   force =     0.00489317    0.01198958   -0.00614886
     atom   11 type  3   force =    -0.00087972   -0.00203739   -0.01295324
     atom   12 type  3   force =     0.00508086   -0.00725646   -0.00638092
     atom   13 type  3   force =     0.00110901    0.00363044   -0.01256245
     atom   14 type  3   force =    -0.00044094    0.00505633   -0.01005360
     atom   15 type  3   force =     0.00306617   -0.00774919   -0.00981243
     atom   16 type  3   force =     0.00299907   -0.00498694   -0.00984379
     atom   17 type  3   force =     0.00596326    0.00329183   -0.01061760
     atom   18 type  4   force =     0.00116325   -0.00142213    0.01340550
     atom   19 type  4   force =     0.00578698   -0.00271626   -0.00785127
     atom   20 type  4   force =    -0.00226640   -0.00110370   -0.00808631
     atom   21 type  4   force =    -0.00368732    0.00022991   -0.01300083
     atom   22 type  4   force =     0.00056399    0.00230515   -0.00102995
     atom   23 type  5   force =    -0.00078344    0.00026346    0.00183973

     Total force =     0.562988     Total SCF correction =     0.042460

     Computing stress (Cartesian axis) and pressure

     negative rho (up, down):  9.094E-01 9.094E-01
          total   stress  (Ry/bohr**3)                   (kbar)     P=       98.45
   0.00076427   0.00004022   0.00008806          112.43        5.92       12.95
   0.00004022   0.00075519   0.00003584            5.92      111.09        5.27
   0.00008806   0.00003584   0.00048826           12.95        5.27       71.83

     Entering Dynamics:    iteration =    20
                           time      =   0.0041 pico-seconds

ATOMIC_POSITIONS (angstrom)
Hf            2.6699999570        2.8271230292        6.6039642186    0   0   0
Hf            1.2529906802        1.2862841814        5.0584662261    0   0   0
Hf            1.2554868986        7.3898042948        5.0880677674    0   0   0
Hf            4.0870092338        1.2862841814        5.0584662261    0   0   0
Hf            4.0845130154        7.3898042948        5.0880677674    0   0   0
Nb            2.6699999570        2.7969306055        3.5155832167    0   0   0
Nb            2.6699999570        5.8763786763        6.6349979432    0   0   0
Ta            1.2093730560        4.3409278516        5.0711258323    0   0   0
Ta            4.1306268580        4.3409278516        5.0711258323    0   0   0
Ta            1.3069710211        1.3137687299        2.0581633814
Ta            1.3024987684        1.3080039771        8.0952335689
Ta            1.3037815499        7.3762183655        2.0455993083
Ta            1.3075394386        7.3654034576        8.0866995857
Ta            4.0330033625        1.3138473876        2.0581488259
Ta            4.0374665290        1.3079934373        8.0952224296
Ta            4.0362276191        7.3761924485        2.0456509126
Ta            4.0324439824        7.3654565112        8.0866427782
Zr            2.6700315219        5.8668713267        3.5271230750
Zr            1.2407904010        4.3219893252        1.9974079019
Zr            1.2373200936        4.3542111190        8.1522600719
Zr            4.0992013522        4.3219570779        1.9972102745
Zr            4.1028530527        4.3542495668        8.1522250962
H             5.1815098626        4.8651182383        6.0258376422

     kinetic energy (Ekin) =           1.75228915 Ry
     temperature           =       13174.50355413 K
     Ekin + Etot (const)   =       -2941.22985796 Ry
     Ions kinetic stress =           33.85 (kbar)
                                     47.70          23.73          44.59
                                     23.73          11.86          22.26
                                     44.59          22.26          41.98

     The maximum number of steps has been reached.

     End of molecular dynamics calculation

     diffusion coefficients :
     atom     1   D =       0.00000000 cm^2/s
     atom     2   D =       0.00000000 cm^2/s
     atom     3   D =       0.00000000 cm^2/s
     atom     4   D =       0.00000000 cm^2/s
     atom     5   D =       0.00000000 cm^2/s
     atom     6   D =       0.00000000 cm^2/s
     atom     7   D =       0.00000000 cm^2/s
     atom     8   D =       0.00000000 cm^2/s
     atom     9   D =       0.00000000 cm^2/s
     atom    10   D =       0.00000000 cm^2/s
     atom    11   D =       0.00000000 cm^2/s
     atom    12   D =       0.00000000 cm^2/s
     atom    13   D =       0.00000000 cm^2/s
     atom    14   D =       0.00000000 cm^2/s
     atom    15   D =       0.00000000 cm^2/s
     atom    16   D =       0.00000000 cm^2/s
     atom    17   D =       0.00000000 cm^2/s
     atom    18   D =       0.00000000 cm^2/s
     atom    19   D =       0.00000007 cm^2/s
     atom    20   D =       0.00000006 cm^2/s
     atom    21   D =       0.00000007 cm^2/s
     atom    22   D =       0.00000007 cm^2/s
     atom    23   D =       0.00003612 cm^2/s

     < D > =       0.00000260 cm^2/s

     Writing all to output data dir outdir/pwscf.save/

     General routines

     Parallel routines

   This run was terminated on:  22:28:53  11Jun2023

   JOB DONE.