     Program PWSCF v.7.2 starts on 15Jun2023 at  6:56:37

     Reading input from md_data/md_Hf5Nb2Ta10Zr5H_20steps_100eV_incident75_polar90.in
Warning: card &CELL ignored
Warning: card / ignored

     Current dimensions of program PWSCF are:
     Max number of different atomic species (ntypx) = 10
     Max number of k-points (npk) =  40000
     Max angular momentum in pseudopotentials (lmaxx) =  4

     File outdir/pwscf.md deleted, as requested

     gamma-point specific algorithms are used

     R & G space division:  proc/nbgrp/npool/nimage =      42
     Subspace diagonalization in iterative solution of the eigenvalue problem:
     one sub-group per band group will be used

     Using Slab Decomposition

     bravais-lattice index     =            0
     lattice parameter (alat)  =      17.6500  a.u.
     unit-cell volume          =    5552.8853 (a.u.)^3
     number of atoms/cell      =           23
     number of atomic types    =            5
     number of electrons       =       277.00
     number of Kohn-Sham states=          167
     kinetic-energy cutoff     =     120.0000  Ry
     charge density cutoff     =     480.0000  Ry
     scf convergence threshold =      1.0E-03
     mixing beta               =       0.7000
     number of iterations used =            8  TF        mixing
     energy convergence thresh.=      0.0E+00
     force convergence thresh. =      0.0E+00
     Exchange-correlation=  SLA  PW   PBX  PBC
                           (   1   4   3   4   0   0   0)
     nstep                     =           20

     celldm(1)=  17.650041  celldm(2)=   0.000000  celldm(3)=   0.000000
     celldm(4)=   0.000000  celldm(5)=   0.000000  celldm(6)=   0.000000

     crystal axes: (cart. coord. in units of alat)
               a(1) = (   1.000000   0.000000   0.000000 )
               a(2) = (   0.000000   0.929336   0.000000 )
               a(3) = (   0.000000   0.000000   1.086698 )

     reciprocal axes: (cart. coord. in units 2 pi/alat)
               b(1) = (  1.000000  0.000000  0.000000 )
               b(2) = (  0.000000  1.076037  0.000000 )
               b(3) = (  0.000000  0.000000  0.920219 )

     PseudoPot. # 1 for Hf read from file:
     q-e/pseudo/hf_pbe_v1.uspp.F.UPF
     MD5 check sum: 8ee9378dfe14276e333edf04c5e4aa26
     Pseudo is Ultrasoft + core correction, Zval = 12.0
     Generated by new atomic code, or converted to UPF format
     Using radial grid of  921 points,  8 beta functions with:
                l(1) =   0
                l(2) =   0
                l(3) =   0
                l(4) =   1
                l(5) =   1
                l(6) =   2
                l(7) =   2
                l(8) =   3
     Q(r) pseudized with  6 coefficients,  rinner =    1.200   1.200   1.200
                                                       1.200   1.200   1.200
                                                       1.200

     PseudoPot. # 2 for Nb read from file:
     q-e/pseudo/nb_pbe_v1.uspp.F.UPF
     MD5 check sum: 573aab8a2fa660278ed4a62cd769473f
     Pseudo is Ultrasoft + core correction, Zval = 13.0
     Generated by new atomic code, or converted to UPF format
     Using radial grid of  887 points,  6 beta functions with:
                l(1) =   0
                l(2) =   0
                l(3) =   1
                l(4) =   1
                l(5) =   2
                l(6) =   2
     Q(r) pseudized with  6 coefficients,  rinner =    1.000   1.000   1.000
                                                       1.000   1.000

     PseudoPot. # 3 for Ta read from file:
     q-e/pseudo/ta_pbe_v1.uspp.F.UPF
     MD5 check sum: f8bbe9446314a3b8ea5d9f3e3836c939
     Pseudo is Ultrasoft + core correction, Zval = 13.0
     Generated by new atomic code, or converted to UPF format
     Using radial grid of  921 points,  7 beta functions with:
                l(1) =   0
                l(2) =   0
                l(3) =   1
                l(4) =   1
                l(5) =   2
                l(6) =   2
                l(7) =   3
     Q(r) pseudized with  6 coefficients,  rinner =    1.300   1.300   1.300
                                                       1.300   1.300   1.300
                                                       1.300

     PseudoPot. # 4 for Zr read from file:
     q-e/pseudo/zr_pbe_v1.uspp.F.UPF
     MD5 check sum: 5db81b1e868ab7776c4564c113de050b
     Pseudo is Ultrasoft + core correction, Zval = 12.0
     Generated by new atomic code, or converted to UPF format
     Using radial grid of  887 points,  6 beta functions with:
                l(1) =   0
                l(2) =   0
                l(3) =   1
                l(4) =   1
                l(5) =   2
                l(6) =   2
     Q(r) pseudized with  6 coefficients,  rinner =    1.200   1.200   1.200
                                                       1.200   1.200

     PseudoPot. # 5 for H  read from file:
     q-e/pseudo/h_pbe_v1.4.uspp.F.UPF
     MD5 check sum: 761ae9a214b05c3daf00ab9f6b793d6f
     Pseudo is Ultrasoft, Zval =  1.0
     Generated by new atomic code, or converted to UPF format
     Using radial grid of  615 points,  2 beta functions with:
                l(1) =   0
                l(2) =   0
     Q(r) pseudized with  8 coefficients,  rinner =    0.700

     atomic species   valence    mass     pseudopotential
        Hf            12.00   178.49000     Hf( 1.00)
        Nb            13.00    92.90637     Nb( 1.00)
        Ta            13.00   180.94788     Ta( 1.00)
        Zr            12.00    91.22400     Zr( 1.00)
        H              1.00     2.01400     H ( 1.00)

     Starting magnetic structure
     atomic species   magnetization
        Hf           0.000
        Nb           0.000
        Ta           0.000
        Zr           0.000
        H            0.000

     No symmetry found

   Cartesian axes

     site n.     atom                  positions (alat units)
         1           Hf  tau(   1) = (   0.2858672   0.3026898   0.7070626  )
         2           Hf  tau(   2) = (   0.1341532   0.1377178   0.5415917  )
         3           Hf  tau(   3) = (   0.1344204   0.7911996   0.5447610  )
         4           Hf  tau(   4) = (   0.4375813   0.1377178   0.5415917  )
         5           Hf  tau(   5) = (   0.4373140   0.7911996   0.5447610  )
         6           Nb  tau(   6) = (   0.2858672   0.2994572   0.3764008  )
         7           Nb  tau(   7) = (   0.2858672   0.6291626   0.7103852  )
         8           Ta  tau(   8) = (   0.1294832   0.4647675   0.5429471  )
         9           Ta  tau(   9) = (   0.4422513   0.4647675   0.5429471  )
        10           Ta  tau(  10) = (   0.1399628   0.1406984   0.2204260  )
        11           Ta  tau(  11) = (   0.1394848   0.1400847   0.8666573  )
        12           Ta  tau(  12) = (   0.1396156   0.7897030   0.2190832  )
        13           Ta  tau(  13) = (   0.1400119   0.7885528   0.8657390  )
        14           Ta  tau(  14) = (   0.4317717   0.1406984   0.2204260  )
        15           Ta  tau(  15) = (   0.4322496   0.1400847   0.8666573  )
        16           Ta  tau(  16) = (   0.4321189   0.7897030   0.2190832  )
        17           Ta  tau(  17) = (   0.4317226   0.7885528   0.8657390  )
        18           Zr  tau(  18) = (   0.2858672   0.6280820   0.3776642  )
        19           Zr  tau(  19) = (   0.1331729   0.4627493   0.2141328  )
        20           Zr  tau(  20) = (   0.1328036   0.4661802   0.8725649  )
        21           Zr  tau(  21) = (   0.4385616   0.4627493   0.2141328  )
        22           Zr  tau(  22) = (   0.4389309   0.4661802   0.8725649  )
        23           H   tau(  23) = (   0.4976729   0.4646681   0.7498963  )

     number of k points=     1  Gaussian smearing, width (Ry)=  0.0220
                       cart. coord. in units 2pi/alat
        k(    1) = (   0.0000000   0.0000000   0.0000000), wk =   1.0000000

     Check: negative core charge=   -0.000002
     Generating pointlists ...
     new r_m :   0.1114 (alat units)  1.9662 (a.u.) for type    1
     new r_m :   0.1098 (alat units)  1.9374 (a.u.) for type    2
     new r_m :   0.0884 (alat units)  1.5598 (a.u.) for type    3
     new r_m :   0.0561 (alat units)  0.9903 (a.u.) for type    4
     new r_m :   0.0561 (alat units)  0.9903 (a.u.) for type    5

     Initial potential from superposition of free atoms

     starting charge     266.9726, renormalised to     277.0000

     negative rho (up, down):  9.212E-01 9.212E-01
     Starting wfcs are  287 randomized atomic wfcs

     Self-consistent Calculation

     iteration #  1     ecut=   120.00 Ry     beta= 0.70
     Davidson diagonalization with overlap
     ethr =  1.00E-02,  avg # of iterations =  2.0

     negative rho (up, down):  9.973E-01 9.968E-01

     total energy              =   -2930.28287611 Ry
     estimated scf accuracy    <     275.82938036 Ry

     total magnetization       =    -0.00 Bohr mag/cell
     absolute magnetization    =     0.09 Bohr mag/cell

[...]

     Magnetic moment per site  (integrated on atomic sphere of radius R)
     atom   1 (R=0.111)  charge=  9.4396  magn= -0.0003
     atom   2 (R=0.111)  charge=  9.0373  magn=  0.0004
     atom   3 (R=0.111)  charge=  9.0372  magn=  0.0002
     atom   4 (R=0.111)  charge=  9.0410  magn=  0.0004
     atom   5 (R=0.111)  charge=  9.0399  magn=  0.0003
     atom   6 (R=0.110)  charge= 10.3427  magn=  0.0003
     atom   7 (R=0.110)  charge= 10.3498  magn= -0.0000
     atom   8 (R=0.088)  charge=  8.1300  magn=  0.0001
     atom   9 (R=0.088)  charge=  8.1262  magn=  0.0003
     atom  10 (R=0.088)  charge=  8.1097  magn=  0.0012
     atom  11 (R=0.088)  charge=  8.1065  magn=  0.0014
     atom  12 (R=0.088)  charge=  8.1109  magn=  0.0015
     atom  13 (R=0.088)  charge=  8.1100  magn=  0.0006
     atom  14 (R=0.088)  charge=  8.1092  magn=  0.0007
     atom  15 (R=0.088)  charge=  8.1087  magn= -0.0005
     atom  16 (R=0.088)  charge=  8.1114  magn= -0.0002
     atom  17 (R=0.088)  charge=  8.1110  magn=  0.0007
     atom  18 (R=0.056)  charge=  2.8340  magn= -0.0000
     atom  19 (R=0.056)  charge=  2.8140  magn= -0.0001
     atom  20 (R=0.056)  charge=  2.8124  magn=  0.0002
     atom  21 (R=0.056)  charge=  2.8143  magn= -0.0003
     atom  22 (R=0.056)  charge=  2.8289  magn= -0.0000
     atom  23 (R=0.056)  charge=  0.8506  magn=  0.0000

     End of self-consistent calculation

 ------ SPIN UP ------------

          k = 0.0000 0.0000 0.0000 ( 61588 PWs)   bands (ev):

   -60.7745 -60.7729 -60.7286 -60.7275 -60.6978 -60.6916 -60.6540 -60.6456
   -60.6047 -60.5311 -54.3888 -54.3431 -54.2636 -54.2182 -52.7252 -46.2709
   -46.2328 -41.6273 -41.5895 -41.5173 -41.1063 -39.7618 -27.7762 -27.7689
   -27.6884 -27.6812 -27.5962 -27.5825 -27.4699 -27.4598 -27.4493 -27.3354
   -27.3173 -27.2673 -27.2588 -27.2555 -27.2226 -27.2073 -27.1827 -27.1753
   -27.1561 -27.1341 -27.0867 -27.0783 -26.9536 -26.9475 -26.9401 -26.9313
   -26.8805 -26.8769 -26.8542 -26.8441 -24.1713 -23.9625 -23.6589 -23.5785
   -23.3167 -23.1850 -23.1598 -23.0632 -22.9339 -22.8648 -22.8475 -22.6303
   -22.5021 -22.4420 -22.3867 -22.3505 -22.2675 -22.2271 -21.7593 -21.7188
[...]
     absolute magnetization    =     0.01 Bohr mag/cell

     convergence has been achieved in   5 iterations

     negative rho (up, down):  9.077E-01 9.077E-01

     Forces acting on atoms (cartesian axes, Ry/au):

     atom    1 type  1   force =     0.00196308   -0.01305301   -0.00109356
     atom    2 type  1   force =    -0.11566792   -0.01459405   -0.00994017
     atom    3 type  1   force =    -0.11327418    0.01175997   -0.00397791
     atom    4 type  1   force =     0.11452865   -0.02255452   -0.00884760
     atom    5 type  1   force =     0.11381297    0.02143523   -0.00325270
     atom    6 type  2   force =    -0.00843917   -0.01557904    0.00585884
     atom    7 type  2   force =    -0.00045485    0.00568749   -0.01373746
     atom    8 type  3   force =    -0.10369082    0.00229776   -0.01009394
     atom    9 type  3   force =     0.12171103    0.00014689    0.02818182
     atom   10 type  3   force =    -0.02365939   -0.03307459   -0.05784486
     atom   11 type  3   force =    -0.01847568   -0.03401279    0.06101716
     atom   12 type  3   force =    -0.01845367    0.03769553   -0.05308170
     atom   13 type  3   force =    -0.01799993    0.02853887    0.06456195
     atom   14 type  3   force =     0.02340704   -0.03248170   -0.05614773
     atom   15 type  3   force =     0.01322567   -0.04064825    0.05711839
     atom   16 type  3   force =     0.01822377    0.03710785   -0.05123070
     atom   17 type  3   force =     0.01151924    0.03413110    0.06033158
     atom   18 type  4   force =    -0.01103922    0.02495416   -0.01802978
     atom   19 type  4   force =    -0.12770343   -0.00524048   -0.11326990
     atom   20 type  4   force =    -0.10782403    0.00642344    0.12163748
     atom   21 type  4   force =     0.12670887   -0.00496384   -0.11272134
     atom   22 type  4   force =    -0.47101829    0.02669353    0.59876214
     atom   23 type  5   force =     0.59260027   -0.02066956   -0.48420000
     The non-local contrib.  to forces
     atom    1 type  1   force =     0.00473172   -0.01278815    0.02740843
     atom    2 type  1   force =    -0.24416208   -0.16353557    0.01034205
     atom    3 type  1   force =    -0.23839908    0.15936044   -0.03280585
     atom    4 type  1   force =     0.24847441   -0.16838693    0.02347280
     atom    5 type  1   force =     0.24175758    0.16600127   -0.01934711
     atom    6 type  2   force =     0.00439672   -0.03288441   -0.05356596
     atom    7 type  2   force =    -0.00133808    0.05961648    0.06028959
     atom    8 type  3   force =    -0.26643118   -0.00081702   -0.00746792
     atom    9 type  3   force =     0.28480806    0.00243526    0.01729258
     atom   10 type  3   force =    -0.21047920    0.00521512   -0.20752676
     atom   11 type  3   force =    -0.22207420    0.00529246    0.19961677
     atom   12 type  3   force =    -0.20034622   -0.02123892   -0.17839426
     atom   13 type  3   force =    -0.21014451   -0.00129931    0.21201444
     atom   14 type  3   force =     0.20883655    0.00403565   -0.21051873
     atom   15 type  3   force =     0.23387330    0.02035287    0.19030373
     atom   16 type  3   force =     0.19792728   -0.02069106   -0.18145299
     atom   17 type  3   force =     0.21883577   -0.01486626    0.20269678
     atom   18 type  4   force =     0.00673123    0.03870149   -0.05294705
     atom   19 type  4   force =     0.06507415    0.01028186    0.08251959
     atom   20 type  4   force =     0.05281288   -0.01350984   -0.05320017
     atom   21 type  4   force =    -0.06000474    0.00814846    0.08499820
     atom   22 type  4   force =    -0.05306821   -0.01137005   -0.06925593
     atom   23 type  5   force =    -0.12895967    0.00529314    0.10560409
     The ionic contribution  to forces
     atom    1 type  1   force =    -0.32351525   -4.69205450   13.78702494
     atom    2 type  1   force =   -39.70990354   -6.17039151    0.74088750
     atom    3 type  1   force =   -39.68349996    6.15833858   -0.75325685
     atom    4 type  1   force =    39.58049552   -6.28416269    0.69670622
     atom    5 type  1   force =    39.55489763    6.26860674   -0.79361494
     atom    6 type  2   force =    -0.35459464   -3.86998448  -14.08068852
     atom    7 type  2   force =    -0.34434768    3.70084969   13.70558832
     atom    8 type  3   force =   -52.28394405    0.07165732   -0.06337756
     atom    9 type  3   force =    51.61745877    0.11998258   -0.44419284
     atom   10 type  3   force =   -36.07625186   -2.11525593  -22.99274712
     atom   11 type  3   force =   -35.17845198   -0.89761754   22.01788388
     atom   12 type  3   force =   -35.26377112    0.81948075  -22.04859028
     atom   13 type  3   force =   -36.07613922    2.23063614   22.99667730
     atom   14 type  3   force =    35.98267890   -2.18231768  -23.00560033
     atom   15 type  3   force =    34.90542614   -1.19790938   22.07232741
     atom   16 type  3   force =    35.17127003    0.88482622  -22.06085345
     atom   17 type  3   force =    35.80884189    2.51744433   23.04550773
     atom   18 type  4   force =    -0.33634302    4.65606691  -14.03109228
     atom   19 type  4   force =   -35.94884112    0.95368517  -25.43358698
     atom   20 type  4   force =   -35.99040524   -0.94907129   25.40947291
     atom   21 type  4   force =    35.79945958    0.95195311  -25.63658776
     atom   22 type  4   force =    32.41912008   -0.82765027   27.78463557
     atom   23 type  5   force =     6.73036017   -0.14711228   -0.91252287
     The local contribution  to forces
     atom    1 type  1   force =     0.32551161    4.69621268  -13.82152664
     atom    2 type  1   force =    39.85201866    6.32036947   -0.78346534
     atom    3 type  1   force =    39.82176152   -6.30714602    0.76110632
     atom    4 type  1   force =   -39.72657240    6.43394636   -0.75195065
     atom    5 type  1   force =   -39.69512450   -6.41677021    0.78857837
     atom    6 type  2   force =     0.34314310    3.88136546   14.11268440
     atom    7 type  2   force =     0.35173115   -3.75823161  -13.78541145
     atom    8 type  3   force =    52.48362492   -0.06997242    0.03962402
     atom    9 type  3   force =   -51.81396821   -0.12370596    0.43648715
     atom   10 type  3   force =    36.28485446    2.06127713   23.15574063
     atom   11 type  3   force =    35.41033937    0.85232301  -22.16206533
     atom   12 type  3   force =    35.46714887   -0.74489583   22.18670966
     atom   13 type  3   force =    36.29414733   -2.19405797  -23.14859069
     atom   14 type  3   force =   -36.18976445    2.13139058   23.17257107
     atom   15 type  3   force =   -35.15290319    1.13330532  -22.21120181
     atom   16 type  3   force =   -35.37260161   -0.81213655   22.20311120
     atom   17 type  3   force =   -36.04017110   -2.46469666  -23.19281635
     atom   18 type  4   force =     0.31938235   -4.66289010   14.03952673
     atom   19 type  4   force =    35.76473796   -0.96886471   25.24335874
     atom   20 type  4   force =    35.84903755    0.96749409  -25.23204058
     atom   21 type  4   force =   -35.62001979   -0.96533119   25.44529400
     atom   22 type  4   force =   -32.84484892    0.86463057  -27.12063976
     atom   23 type  5   force =    -6.00899250    0.12113833    0.32206748
     The core correction contribution to forces
     atom    1 type  1   force =     0.00063840    0.00098402   -0.00113541
     atom    2 type  1   force =    -0.01185058   -0.00204392    0.00021045
     atom    3 type  1   force =    -0.01199739    0.00321361   -0.00191887
     atom    4 type  1   force =     0.01313206   -0.00349502    0.00279898
     atom    5 type  1   force =     0.01351442    0.00438292    0.00054975
     atom    6 type  2   force =    -0.00037597    0.00147917    0.00195309
     atom    7 type  2   force =     0.00024733   -0.00295802   -0.00233694
     atom    8 type  3   force =    -0.03373404    0.00022354   -0.00138606
     atom    9 type  3   force =     0.03393915   -0.00011055    0.00090220
     atom   10 type  3   force =    -0.02149135    0.00890213   -0.01638083
     atom   11 type  3   force =    -0.02409015    0.00973958    0.01696593
     atom   12 type  3   force =    -0.02142425   -0.00944720   -0.01570754
     atom   13 type  3   force =    -0.02245052   -0.00920485    0.01687280
     atom   14 type  3   force =     0.02174885    0.00902516   -0.01577255
     atom   15 type  3   force =     0.02571999    0.01226710    0.01579664
     atom   16 type  3   force =     0.02159695   -0.00927073   -0.01536449
     atom   17 type  3   force =     0.02371083   -0.01181201    0.01602252
     atom   18 type  4   force =    -0.00050837   -0.00199333    0.00215442
     atom   19 type  4   force =    -0.00985007   -0.00003367   -0.01009800
     atom   20 type  4   force =    -0.00868150    0.00036194    0.00893703
     atom   21 type  4   force =     0.00960672    0.00008973   -0.01048006
     atom   22 type  4   force =     0.00310566    0.00043228    0.01358130
     atom   23 type  5   force =     0.00000000    0.00000000    0.00000000
     The Hubbard contrib.    to forces
     atom    1 type  1   force =     0.00000000    0.00000000    0.00000000
     atom    2 type  1   force =     0.00000000    0.00000000    0.00000000
     atom    3 type  1   force =     0.00000000    0.00000000    0.00000000
     atom    4 type  1   force =     0.00000000    0.00000000    0.00000000
     atom    5 type  1   force =     0.00000000    0.00000000    0.00000000
     atom    6 type  2   force =     0.00000000    0.00000000    0.00000000
     atom    7 type  2   force =     0.00000000    0.00000000    0.00000000
     atom    8 type  3   force =     0.00000000    0.00000000    0.00000000
     atom    9 type  3   force =     0.00000000    0.00000000    0.00000000
     atom   10 type  3   force =     0.00000000    0.00000000    0.00000000
     atom   11 type  3   force =     0.00000000    0.00000000    0.00000000
     atom   12 type  3   force =     0.00000000    0.00000000    0.00000000
     atom   13 type  3   force =     0.00000000    0.00000000    0.00000000
     atom   14 type  3   force =     0.00000000    0.00000000    0.00000000
     atom   15 type  3   force =     0.00000000    0.00000000    0.00000000
     atom   16 type  3   force =     0.00000000    0.00000000    0.00000000
     atom   17 type  3   force =     0.00000000    0.00000000    0.00000000
     atom   18 type  4   force =     0.00000000    0.00000000    0.00000000
     atom   19 type  4   force =     0.00000000    0.00000000    0.00000000
     atom   20 type  4   force =     0.00000000    0.00000000    0.00000000
     atom   21 type  4   force =     0.00000000    0.00000000    0.00000000
     atom   22 type  4   force =     0.00000000    0.00000000    0.00000000
     atom   23 type  5   force =     0.00000000    0.00000000    0.00000000
     The SCF correction term to forces
     atom    1 type  1   force =    -0.00500177   -0.00533426    0.00566212
     atom    2 type  1   force =    -0.00136875    0.00108027    0.02061217
     atom    3 type  1   force =    -0.00073762   -0.00193385    0.02142434
     atom    4 type  1   force =    -0.00059929   -0.00038344    0.01865205
     atom    5 type  1   force =    -0.00083052   -0.00071269    0.01910822
     atom    6 type  2   force =    -0.00060675    0.00451801    0.02400283
     atom    7 type  2   force =    -0.00634594    0.00648375    0.00666002
     atom    8 type  3   force =    -0.00280484    0.00127914    0.02104058
     atom    9 type  3   force =    -0.00012509    0.00161836    0.01621974
     atom   10 type  3   force =     0.00011020    0.00685975    0.00159623
     atom   11 type  3   force =    -0.00379708   -0.00367750   -0.01285709
     atom   12 type  3   force =     0.00034069   -0.00613047    0.00142772
     atom   13 type  3   force =    -0.00301138    0.00253765   -0.01388490
     atom   14 type  3   force =     0.00030882    0.00545739    0.00169981
     atom   15 type  3   force =     0.00151107   -0.00859136   -0.01158059
     atom   16 type  3   force =     0.00043275   -0.00554723    0.00185603
     atom   17 type  3   force =     0.00070349    0.00813449   -0.01255209
     atom   18 type  4   force =     0.00010024   -0.00485800    0.02285541
     atom   19 type  4   force =     0.00157728   -0.00023632    0.00306375
     atom   20 type  4   force =    -0.01018609    0.00122134   -0.01300471
     atom   21 type  4   force =    -0.00193128    0.00024885    0.00258128
     atom   22 type  4   force =     0.00507473    0.00072380   -0.01103204
     atom   23 type  5   force =     0.00059390    0.00008407   -0.00082171

     Total force =     1.171692     Total SCF correction =     0.071535

     Computing stress (Cartesian axis) and pressure

     negative rho (up, down):  9.077E-01 9.077E-01
          total   stress  (Ry/bohr**3)                   (kbar)     P=       98.01
   0.00081551  -0.00000753  -0.00014720          119.97       -1.11      -21.65
  -0.00000753   0.00066833  -0.00000557           -1.11       98.31       -0.82
  -0.00014720  -0.00000557   0.00051496          -21.65       -0.82       75.75

     Entering Dynamics:    iteration =    20
                           time      =   0.0041 pico-seconds

ATOMIC_POSITIONS (angstrom)
Hf            2.6705657457        2.8268109908        6.6064278464
Hf            1.2523241874        1.2861523698        5.0608295984
Hf            1.2548265158        7.3899002407        5.0905182167
Hf            4.0889927482        1.2861286883        5.0608276933
Hf            4.0864997850        7.3899227505        5.0904963256
Nb            2.6706780665        2.7966049649        3.5182455990
Nb            2.6704915694        5.8768341700        6.6371769354
Ta            1.2087627870        4.3409609891        5.0735238328
Ta            4.1155550381        4.3411963501        5.0216203169
Ta            1.3076297168        1.3137426227        2.0605425667
Ta            1.3032421297        1.3079803104        8.0976533222
Ta            1.3044384073        7.3762552923        2.0480460033
Ta            1.3081842499        7.3654261731        8.0891143243
Ta            4.0336223439        1.3138061794        2.0605356611
Ta            4.0380413393        1.3079879946        8.0976391060
Ta            4.0368211566        7.3762099004        2.0480484732
Ta            4.0330885394        7.3654144334        8.0891061805
Zr            2.6706465250        5.8667999800        3.5296407389
Zr            1.2415891973        4.3219712232        1.9998092563
Zr            1.2381419286        4.3542425126        8.1548166894
Zr            4.0998074388        4.3219426610        1.9996999091
Zr            4.1023214054        4.3543245862        8.1567242350
H             5.1499528865        4.3162203893        7.5676195472

     kinetic energy (Ekin) =           8.07613008 Ry
     temperature           =       38640.00268832 K
     Ekin + Etot (const)   =       -2934.68216142 Ry
     Ions kinetic stress =          142.63 (kbar)
                                     73.05          -1.92         160.31
                                     -1.92           0.06          -4.21
                                    160.31          -4.21         354.79

     Linear momentum :    0.0000000000   -0.0000000000   -0.0000000000

     The maximum number of steps has been reached.

     End of molecular dynamics calculation

     diffusion coefficients :
     atom     1   D =       0.00000003 cm^2/s
     atom     2   D =       0.00000002 cm^2/s
     atom     3   D =       0.00000003 cm^2/s
     atom     4   D =       0.00000004 cm^2/s
     atom     5   D =       0.00000004 cm^2/s
     atom     6   D =       0.00000003 cm^2/s
     atom     7   D =       0.00000002 cm^2/s
     atom     8   D =       0.00000003 cm^2/s
     atom     9   D =       0.00001098 cm^2/s
     atom    10   D =       0.00000001 cm^2/s
     atom    11   D =       0.00000004 cm^2/s
     atom    12   D =       0.00000001 cm^2/s
     atom    13   D =       0.00000004 cm^2/s
     atom    14   D =       0.00000002 cm^2/s
     atom    15   D =       0.00000004 cm^2/s
     atom    16   D =       0.00000002 cm^2/s
     atom    17   D =       0.00000004 cm^2/s
     atom    18   D =       0.00000002 cm^2/s
     atom    19   D =       0.00000002 cm^2/s
     atom    20   D =       0.00000013 cm^2/s
     atom    21   D =       0.00000005 cm^2/s
     atom    22   D =       0.00000023 cm^2/s
     atom    23   D =       0.00233730 cm^2/s

     < D > =       0.00010214 cm^2/s

     Writing all to output data dir outdir/pwscf.save/

     General routines

     Parallel routines

   This run was terminated on:   7:51:21  15Jun2023

   JOB DONE.