     Program PWSCF v.7.2 starts on 11Jun2023 at 19: 7:54

     Reading input from md_data/md_Hf5Nb2Ta10Zr5H_20steps_100eV_incident45_polar0.in
Warning: card &CELL ignored
Warning: card / ignored

     Current dimensions of program PWSCF are:
     Max number of different atomic species (ntypx) = 10
     Max number of k-points (npk) =  40000
     Max angular momentum in pseudopotentials (lmaxx) =  4

     gamma-point specific algorithms are used

     R & G space division:  proc/nbgrp/npool/nimage =      42
     Subspace diagonalization in iterative solution of the eigenvalue problem:
     one sub-group per band group will be used

     Using Slab Decomposition

     bravais-lattice index     =            0
     lattice parameter (alat)  =      16.1383  a.u.
     unit-cell volume          =    5077.2634 (a.u.)^3
     number of atoms/cell      =           23
     number of atomic types    =            5
     number of electrons       =       277.00
     number of Kohn-Sham states=          167
     kinetic-energy cutoff     =     120.0000  Ry
     charge density cutoff     =     480.0000  Ry
     scf convergence threshold =      1.0E-03
     mixing beta               =       0.7000
     number of iterations used =            8  TF        mixing
     energy convergence thresh.=      0.0E+00
     force convergence thresh. =      0.0E+00
     Exchange-correlation=  SLA  PW   PBX  PBC
                           (   1   4   3   4   0   0   0)
     nstep                     =           20

     celldm(1)=  16.138261  celldm(2)=   0.000000  celldm(3)=   0.000000
     celldm(4)=   0.000000  celldm(5)=   0.000000  celldm(6)=   0.000000

     crystal axes: (cart. coord. in units of alat)
               a(1) = (   1.000000   0.000000   0.000000 )
               a(2) = (   0.000000   1.016393   0.000000 )
               a(3) = (   0.000000   0.000000   1.188496 )

     reciprocal axes: (cart. coord. in units 2 pi/alat)
               b(1) = (  1.000000  0.000000  0.000000 )
               b(2) = (  0.000000  0.983871  0.000000 )
               b(3) = (  0.000000  0.000000  0.841400 )

     PseudoPot. # 1 for Hf read from file:
     q-e/pseudo/hf_pbe_v1.uspp.F.UPF
     MD5 check sum: 8ee9378dfe14276e333edf04c5e4aa26
     Pseudo is Ultrasoft + core correction, Zval = 12.0
     Generated by new atomic code, or converted to UPF format
     Using radial grid of  921 points,  8 beta functions with:
                l(1) =   0
                l(2) =   0
                l(3) =   0
                l(4) =   1
                l(5) =   1
                l(6) =   2
                l(7) =   2
                l(8) =   3
     Q(r) pseudized with  6 coefficients,  rinner =    1.200   1.200   1.200
                                                       1.200   1.200   1.200
                                                       1.200

     PseudoPot. # 2 for Nb read from file:
     q-e/pseudo/nb_pbe_v1.uspp.F.UPF
     MD5 check sum: 573aab8a2fa660278ed4a62cd769473f
     Pseudo is Ultrasoft + core correction, Zval = 13.0
     Generated by new atomic code, or converted to UPF format
     Using radial grid of  887 points,  6 beta functions with:
                l(1) =   0
                l(2) =   0
                l(3) =   1
                l(4) =   1
                l(5) =   2
                l(6) =   2
     Q(r) pseudized with  6 coefficients,  rinner =    1.000   1.000   1.000
                                                       1.000   1.000

     PseudoPot. # 3 for Ta read from file:
     q-e/pseudo/ta_pbe_v1.uspp.F.UPF
     MD5 check sum: f8bbe9446314a3b8ea5d9f3e3836c939
     Pseudo is Ultrasoft + core correction, Zval = 13.0
     Generated by new atomic code, or converted to UPF format
     Using radial grid of  921 points,  7 beta functions with:
                l(1) =   0
                l(2) =   0
                l(3) =   1
                l(4) =   1
                l(5) =   2
                l(6) =   2
                l(7) =   3
     Q(r) pseudized with  6 coefficients,  rinner =    1.300   1.300   1.300
                                                       1.300   1.300   1.300
                                                       1.300

     PseudoPot. # 4 for Zr read from file:
     q-e/pseudo/zr_pbe_v1.uspp.F.UPF
     MD5 check sum: 5db81b1e868ab7776c4564c113de050b
     Pseudo is Ultrasoft + core correction, Zval = 12.0
     Generated by new atomic code, or converted to UPF format
     Using radial grid of  887 points,  6 beta functions with:
                l(1) =   0
                l(2) =   0
                l(3) =   1
                l(4) =   1
                l(5) =   2
                l(6) =   2
     Q(r) pseudized with  6 coefficients,  rinner =    1.200   1.200   1.200
                                                       1.200   1.200

     PseudoPot. # 5 for H  read from file:
     q-e/pseudo/h_pbe_v1.4.uspp.F.UPF
     MD5 check sum: 761ae9a214b05c3daf00ab9f6b793d6f
     Pseudo is Ultrasoft, Zval =  1.0
     Generated by new atomic code, or converted to UPF format
     Using radial grid of  615 points,  2 beta functions with:
                l(1) =   0
                l(2) =   0
     Q(r) pseudized with  8 coefficients,  rinner =    0.700

     atomic species   valence    mass     pseudopotential
        Hf            12.00   178.49000     Hf( 1.00)
        Nb            13.00    92.90637     Nb( 1.00)
        Ta            13.00   180.94788     Ta( 1.00)
        Zr            12.00    91.22400     Zr( 1.00)
        H              1.00     2.01400     H ( 1.00)

     Starting magnetic structure
     atomic species   magnetization
        Hf           0.000
        Nb           0.000
        Ta           0.000
        Zr           0.000
        H            0.000

     No symmetry found

   Cartesian axes

     site n.     atom                  positions (alat units)
         1           Hf  tau(   1) = (   0.3126464   0.3310449   0.7732979  )
         2           Hf  tau(   2) = (   0.1467202   0.1506188   0.5923263  )
         3           Hf  tau(   3) = (   0.1470125   0.8653167   0.5957925  )
         4           Hf  tau(   4) = (   0.4785725   0.1506188   0.5923263  )
         5           Hf  tau(   5) = (   0.4782802   0.8653167   0.5957925  )
         6           Nb  tau(   6) = (   0.3126464   0.3275094   0.4116608  )
         7           Nb  tau(   7) = (   0.3126464   0.6881006   0.7769319  )
         8           Ta  tau(   8) = (   0.1416128   0.5083054   0.5938087  )
         9           Ta  tau(   9) = (   0.4836800   0.5083054   0.5938087  )
        10           Ta  tau(  10) = (   0.1530741   0.1538785   0.2410748  )
        11           Ta  tau(  11) = (   0.1525513   0.1532074   0.9478430  )
        12           Ta  tau(  12) = (   0.1526943   0.8636799   0.2396062  )
        13           Ta  tau(  13) = (   0.1531277   0.8624219   0.9468387  )
        14           Ta  tau(  14) = (   0.4722187   0.1538785   0.2410748  )
        15           Ta  tau(  15) = (   0.4727414   0.1532074   0.9478430  )
        16           Ta  tau(  16) = (   0.4725984   0.8636799   0.2396062  )
        17           Ta  tau(  17) = (   0.4721650   0.8624219   0.9468387  )
        18           Zr  tau(  18) = (   0.3126464   0.6869187   0.4130426  )
        19           Zr  tau(  19) = (   0.1456481   0.5060981   0.2341920  )
        20           Zr  tau(  20) = (   0.1452442   0.5098505   0.9543040  )
        21           Zr  tau(  21) = (   0.4796447   0.5060981   0.2341920  )
        22           Zr  tau(  22) = (   0.4800486   0.5098505   0.9543040  )
        23           H   tau(  23) = (   0.6161590   0.6406758   0.5939321  )

     number of k points=     1  Gaussian smearing, width (Ry)=  0.0220
                       cart. coord. in units 2pi/alat
        k(    1) = (   0.0000000   0.0000000   0.0000000), wk =   1.0000000

     Check: negative core charge=   -0.000002
     Generating pointlists ...
     new r_m :   0.1087 (alat units)  1.7547 (a.u.) for type    1
     new r_m :   0.1201 (alat units)  1.9374 (a.u.) for type    2
     new r_m :   0.0773 (alat units)  1.2467 (a.u.) for type    3
     new r_m :   0.1216 (alat units)  1.9625 (a.u.) for type    4
     new r_m :   0.0773 (alat units)  1.2467 (a.u.) for type    5

     Initial potential from superposition of free atoms

     starting charge     266.9726, renormalised to     277.0000

     negative rho (up, down):  9.226E-01 9.226E-01
     Starting wfcs are  287 randomized atomic wfcs

     Self-consistent Calculation

     iteration #  1     ecut=   120.00 Ry     beta= 0.70
     Davidson diagonalization with overlap
     ethr =  1.00E-02,  avg # of iterations =  3.0

     negative rho (up, down):  9.850E-01 9.850E-01

     total energy              =   -2931.82519652 Ry
     estimated scf accuracy    <     287.50916450 Ry

     total magnetization       =    -0.00 Bohr mag/cell
     absolute magnetization    =     0.10 Bohr mag/cell

[...]

     Magnetic moment per site  (integrated on atomic sphere of radius R)
     atom   1 (R=0.109)  charge=  8.5389  magn= -0.0002
     atom   2 (R=0.109)  charge=  8.2942  magn=  0.0001
     atom   3 (R=0.109)  charge=  8.2937  magn=  0.0001
     atom   4 (R=0.109)  charge=  8.2961  magn= -0.0003
     atom   5 (R=0.109)  charge=  8.2880  magn= -0.0001
     atom   6 (R=0.120)  charge= 10.3460  magn= -0.0007
     atom   7 (R=0.120)  charge= 10.3444  magn=  0.0001
     atom   8 (R=0.077)  charge=  5.9435  magn= -0.0003
     atom   9 (R=0.077)  charge=  5.9583  magn= -0.0005
     atom  10 (R=0.077)  charge=  5.9251  magn=  0.0004
     atom  11 (R=0.077)  charge=  5.9259  magn=  0.0001
     atom  12 (R=0.077)  charge=  5.9259  magn=  0.0003
     atom  13 (R=0.077)  charge=  5.9250  magn= -0.0003
     atom  14 (R=0.077)  charge=  5.9255  magn=  0.0005
     atom  15 (R=0.077)  charge=  5.9255  magn=  0.0000
     atom  16 (R=0.077)  charge=  5.9272  magn=  0.0018
     atom  17 (R=0.077)  charge=  5.9254  magn= -0.0002
     atom  18 (R=0.122)  charge=  9.4542  magn= -0.0011
     atom  19 (R=0.122)  charge=  8.9951  magn=  0.0062
     atom  20 (R=0.122)  charge=  8.9948  magn= -0.0001
     atom  21 (R=0.122)  charge=  8.9990  magn=  0.0077
     atom  22 (R=0.122)  charge=  8.9996  magn=  0.0005
     atom  23 (R=0.077)  charge=  0.9228  magn=  0.0000

     End of self-consistent calculation

 ------ SPIN UP ------------

          k = 0.0000 0.0000 0.0000 ( 56324 PWs)   bands (ev):

   -59.7653 -59.7583 -59.7204 -59.7135 -59.6907 -59.6831 -59.6468 -59.6396
   -59.5276 -59.1590 -53.3469 -53.2860 -53.2209 -53.1553 -51.6719 -45.2284
   -45.1953 -40.6211 -40.6151 -40.5311 -40.5207 -38.7814 -26.7697 -26.7605
   -26.6864 -26.6726 -26.5812 -26.5754 -26.4606 -26.4519 -26.3493 -26.3064
   -26.2795 -26.2448 -26.2352 -26.2147 -26.2008 -26.1623 -26.1428 -26.1294
   -26.0835 -25.9459 -25.9435 -25.9406 -25.9336 -25.8813 -25.8742 -25.8628
   -25.8480 -25.8405 -25.8357 -25.8046 -23.1282 -22.9089 -22.6184 -22.5232
   -22.2689 -22.1333 -22.1157 -22.0095 -21.8885 -21.8123 -21.7906 -21.5668
   -21.4650 -21.4062 -21.3575 -21.3074 -21.2303 -21.1805 -20.7307 -20.6597
[...]

     convergence has been achieved in   4 iterations

     negative rho (up, down):  9.096E-01 9.096E-01

     Forces acting on atoms (cartesian axes, Ry/au):

     atom    1 type  1   force =    -0.00503442   -0.02478903    0.01564286
     atom    2 type  1   force =    -0.12144857   -0.01678336    0.00490737
     atom    3 type  1   force =    -0.12289598    0.01200081    0.01187163
     atom    4 type  1   force =     0.13489323   -0.00836949    0.00517986
     atom    5 type  1   force =     0.13066727   -0.02551193    0.01469929
     atom    6 type  2   force =    -0.00462831   -0.01828862    0.00362279
     atom    7 type  2   force =    -0.00968944    0.01085398   -0.00972966
     atom    8 type  3   force =    -0.11893126    0.00816843   -0.00319002
     atom    9 type  3   force =    -0.11527328   -0.23930710    0.00618315
     atom   10 type  3   force =    -0.02472564   -0.02460281   -0.06387212
     atom   11 type  3   force =    -0.02318857   -0.03271617    0.05324672
     atom   12 type  3   force =    -0.01478139    0.03258017   -0.05976466
     atom   13 type  3   force =    -0.01784666    0.02855771    0.05724401
     atom   14 type  3   force =     0.01853631   -0.02890931   -0.06604038
     atom   15 type  3   force =     0.01893778   -0.03608295    0.05546084
     atom   16 type  3   force =     0.01588792    0.03854562   -0.05941942
     atom   17 type  3   force =     0.01757039    0.03485529    0.05730536
     atom   18 type  4   force =    -0.00905437    0.01759689   -0.00851536
     atom   19 type  4   force =    -0.13194166   -0.00608112   -0.11548158
     atom   20 type  4   force =    -0.13763389    0.00358301    0.11163028
     atom   21 type  4   force =     0.12355090   -0.00874076   -0.11650002
     atom   22 type  4   force =     0.13193942    0.00253209    0.11109709
     atom   23 type  5   force =     0.26509022    0.28090863   -0.00557802
     The non-local contrib.  to forces
     atom    1 type  1   force =     0.00913575   -0.00025130    0.01695072
     atom    2 type  1   force =    -0.24870065   -0.16155579    0.02133657
     atom    3 type  1   force =    -0.24124550    0.15251029   -0.02163079
     atom    4 type  1   force =     0.25126471   -0.17011622    0.02235369
     atom    5 type  1   force =     0.23874052    0.13665088   -0.02180524
     atom    6 type  2   force =     0.00906466   -0.05560095   -0.07328232
     atom    7 type  2   force =    -0.00912141    0.07597799    0.06079654
     atom    8 type  3   force =    -0.24970506    0.00153490   -0.00092431
     atom    9 type  3   force =     0.13362592   -0.07997454    0.00035931
     atom   10 type  3   force =    -0.22544278    0.00614223   -0.21938781
     atom   11 type  3   force =    -0.22840441    0.00399949    0.20658392
     atom   12 type  3   force =    -0.20913157   -0.02647391   -0.18354426
     atom   13 type  3   force =    -0.21750973   -0.00517536    0.21041295
     atom   14 type  3   force =     0.21223202    0.00400099   -0.22350863
     atom   15 type  3   force =     0.21997272    0.00549369    0.20726235
     atom   16 type  3   force =     0.21873463   -0.02778317   -0.18221022
     atom   17 type  3   force =     0.22367122   -0.00822417    0.20855678
     atom   18 type  4   force =    -0.01280589    0.06571207   -0.05587089
     atom   19 type  4   force =     0.06839336    0.00827618    0.07136570
     atom   20 type  4   force =     0.06239711   -0.01284580   -0.06969300
     atom   21 type  4   force =    -0.06543520    0.00954590    0.06388709
     atom   22 type  4   force =    -0.05863962   -0.00903615   -0.05585990
     atom   23 type  5   force =    -0.08037175   -0.06735649   -0.00039974
     The ionic contribution  to forces
     atom    1 type  1   force =    -0.20255843   -4.74386288   14.36150753
     atom    2 type  1   force =   -35.67658652   -6.14215397    0.77984176
     atom    3 type  1   force =   -35.70761519    6.25398326   -0.70934040
     atom    4 type  1   force =    35.54136677   -6.19896773    0.77935716
     atom    5 type  1   force =    35.07934009    7.14915234   -0.69988200
     atom    6 type  2   force =    -0.21432005   -3.70750740  -14.28321633
     atom    7 type  2   force =    -0.55421649    3.65137886   14.55107633
     atom    8 type  3   force =   -47.65533988   -0.04624778   -0.06648405
     atom    9 type  3   force =    45.04678543   -2.46420484   -0.05570570
     atom   10 type  3   force =   -32.18568752   -2.07818719  -23.46063860
     atom   11 type  3   force =   -31.25502489   -0.82663242   22.46335902
     atom   12 type  3   force =   -31.38955024    0.83948121  -22.55882730
     atom   13 type  3   force =   -32.17802109    2.22733327   23.48674953
     atom   14 type  3   force =    32.11045290   -2.09558000  -23.52114223
     atom   15 type  3   force =    31.18108873   -0.84353068   22.52345954
     atom   16 type  3   force =    31.23730578    0.96022349  -22.74663954
     atom   17 type  3   force =    32.02405070    2.34894339   23.67588882
     atom   18 type  4   force =    -0.52250350    4.41247346  -14.43047937
     atom   19 type  4   force =   -32.14886891    0.91089111  -25.91043716
     atom   20 type  4   force =   -32.12238501   -1.00336553   25.88860425
     atom   21 type  4   force =    31.96383096    0.81370452  -26.20158058
     atom   22 type  4   force =    31.93965202   -1.09782071   26.17951369
     atom   23 type  5   force =     5.68880434    1.68049624   -0.04498437
     The local contribution  to forces
     atom    1 type  1   force =     0.18989945    4.71441538  -14.34930639
     atom    2 type  1   force =    35.81201047    6.29178717   -0.76697085
     atom    3 type  1   force =    35.83418348   -6.40253311    0.77503210
     atom    4 type  1   force =   -35.66542860    6.37022840   -0.76630054
     atom    5 type  1   force =   -35.18417747   -7.32755742    0.77011738
     atom    6 type  2   force =     0.20174243    3.75246523   14.38437123
     atom    7 type  2   force =     0.55369110   -3.71193372  -14.60758084
     atom    8 type  3   force =    47.81465935    0.05245979    0.09345096
     atom    9 type  3   force =   -45.30238126    2.31610052    0.09076733
     atom   10 type  3   force =    32.40835870    2.04620831   23.62622829
     atom   11 type  3   force =    31.48332770    0.77380948  -22.64295474
     atom   12 type  3   force =    31.60328261   -0.77626058   22.69171473
     atom   13 type  3   force =    32.39765786   -2.17682068  -23.66655501
     atom   14 type  3   force =   -32.32603068    2.06337872   23.69038733
     atom   15 type  3   force =   -31.40236182    0.78585238  -22.70318444
     atom   16 type  3   force =   -31.46296492   -0.88944235   22.87833127
     atom   17 type  3   force =   -32.24974174   -2.28856918  -23.85397959
     atom   18 type  4   force =     0.52419987   -4.46807877   14.50203841
     atom   19 type  4   force =    31.95819775   -0.92656126   25.73340925
     atom   20 type  4   force =    31.92504867    1.01891334  -25.72839901
     atom   21 type  4   force =   -31.78556925   -0.83505117   26.03121883
     atom   22 type  4   force =   -31.75139545    1.10740704  -26.03376462
     atom   23 type  5   force =    -5.34190489   -1.33161940    0.04405932
     The core correction contribution to forces
     atom    1 type  1   force =     0.00029263    0.00360366   -0.00340492
     atom    2 type  1   force =    -0.01033146   -0.00112170    0.00103046
     atom    3 type  1   force =    -0.01144145    0.00309756   -0.00145014
     atom    4 type  1   force =     0.01134568   -0.00277637    0.00113041
     atom    5 type  1   force =     0.00482555    0.00679982   -0.00185185
     atom    6 type  2   force =    -0.00027441    0.00281251    0.00330691
     atom    7 type  2   force =     0.00038425   -0.00369183   -0.00240339
     atom    8 type  3   force =    -0.02896356    0.00097349   -0.00075419
     atom    9 type  3   force =     0.00938847   -0.01444212   -0.00013214
     atom   10 type  3   force =    -0.02353940    0.00863292   -0.01747230
     atom   11 type  3   force =    -0.02513936    0.00894387    0.01775101
     atom   12 type  3   force =    -0.02258422   -0.01005753   -0.01510030
     atom   13 type  3   force =    -0.02290070   -0.00887992    0.01628272
     atom   14 type  3   force =     0.02252283    0.00885880   -0.01758554
     atom   15 type  3   force =     0.02373931    0.00963705    0.01782180
     atom   16 type  3   force =     0.02346874   -0.01017216   -0.01422159
     atom   17 type  3   force =     0.02300898   -0.00870020    0.01543657
     atom   18 type  4   force =     0.00068745   -0.00362265    0.00287364
     atom   19 type  4   force =    -0.01012523    0.00010138   -0.00951817
     atom   20 type  4   force =    -0.00998403    0.00029780    0.00946625
     atom   21 type  4   force =     0.01002294    0.00011506   -0.00895497
     atom   22 type  4   force =     0.00979269    0.00009155    0.00848536
     atom   23 type  5   force =     0.00000000    0.00000000    0.00000000
     The Hubbard contrib.    to forces
     atom    1 type  1   force =     0.00000000    0.00000000    0.00000000
     atom    2 type  1   force =     0.00000000    0.00000000    0.00000000
     atom    3 type  1   force =     0.00000000    0.00000000    0.00000000
     atom    4 type  1   force =     0.00000000    0.00000000    0.00000000
     atom    5 type  1   force =     0.00000000    0.00000000    0.00000000
     atom    6 type  2   force =     0.00000000    0.00000000    0.00000000
     atom    7 type  2   force =     0.00000000    0.00000000    0.00000000
     atom    8 type  3   force =     0.00000000    0.00000000    0.00000000
     atom    9 type  3   force =     0.00000000    0.00000000    0.00000000
     atom   10 type  3   force =     0.00000000    0.00000000    0.00000000
     atom   11 type  3   force =     0.00000000    0.00000000    0.00000000
     atom   12 type  3   force =     0.00000000    0.00000000    0.00000000
     atom   13 type  3   force =     0.00000000    0.00000000    0.00000000
     atom   14 type  3   force =     0.00000000    0.00000000    0.00000000
     atom   15 type  3   force =     0.00000000    0.00000000    0.00000000
     atom   16 type  3   force =     0.00000000    0.00000000    0.00000000
     atom   17 type  3   force =     0.00000000    0.00000000    0.00000000
     atom   18 type  4   force =     0.00000000    0.00000000    0.00000000
     atom   19 type  4   force =     0.00000000    0.00000000    0.00000000
     atom   20 type  4   force =     0.00000000    0.00000000    0.00000000
     atom   21 type  4   force =     0.00000000    0.00000000    0.00000000
     atom   22 type  4   force =     0.00000000    0.00000000    0.00000000
     atom   23 type  5   force =     0.00000000    0.00000000    0.00000000
     The SCF correction term to forces
     atom    1 type  1   force =    -0.00000000    0.00000000   -0.00000000
     atom    2 type  1   force =     0.00000000   -0.00000000   -0.00000000
     atom    3 type  1   force =     0.00000000    0.00000000   -0.00000000
     atom    4 type  1   force =    -0.00000000   -0.00000000   -0.00000000
     atom    5 type  1   force =    -0.00000000    0.00000000   -0.00000000
     atom    6 type  2   force =    -0.00000000   -0.00000000   -0.00000000
     atom    7 type  2   force =    -0.00000000   -0.00000000   -0.00000000
     atom    8 type  3   force =     0.00000000   -0.00000000   -0.00000000
     atom    9 type  3   force =    -0.00000000    0.00000000   -0.00000000
     atom   10 type  3   force =     0.00170321   -0.00750408    0.00908783
     atom   11 type  3   force =     0.00217026    0.00705841    0.01019705
     atom   12 type  3   force =     0.00331989    0.00578597    0.00768200
     atom   13 type  3   force =     0.00304488   -0.00800461    0.01204335
     atom   14 type  3   force =    -0.00052289   -0.00967281    0.00749823
     atom   15 type  3   force =    -0.00338329    0.00635960    0.01179113
     atom   16 type  3   force =    -0.00053844    0.00561481    0.00701020
     atom   17 type  3   force =    -0.00330090   -0.00869954    0.01309231
     atom   18 type  4   force =     0.00148556    0.01100779   -0.02538761
     atom   19 type  4   force =     0.00057923    0.00110646    0.00138833
     atom   20 type  4   force =     0.00740724    0.00047820    0.01334134
     atom   21 type  4   force =     0.00081931    0.00283993    0.00061914
     atom   22 type  4   force =    -0.00735236    0.00178537    0.01441209
     atom   23 type  5   force =    -0.00131962   -0.00071671   -0.00256369

     Total force =     0.556689     Total SCF correction =     0.050887

     Computing stress (Cartesian axis) and pressure

     negative rho (up, down):  9.096E-01 9.096E-01
          total   stress  (Ry/bohr**3)                   (kbar)     P=       98.26
   0.00075219   0.00010714   0.00000110          110.65       15.76        0.16
   0.00010714   0.00082228  -0.00001355           15.76      120.96       -1.99
   0.00000110  -0.00001355   0.00042941            0.16       -1.99       63.17

     Entering Dynamics:    iteration =    20
                           time      =   0.0041 pico-seconds

ATOMIC_POSITIONS (angstrom)
Hf            2.6699999570        2.8271230292        6.6039642186    0   0   0
Hf            1.2529906802        1.2862841814        5.0584662261    0   0   0
Hf            1.2554868986        7.3898042948        5.0880677674    0   0   0
Hf            4.0870092338        1.2862841814        5.0584662261    0   0   0
Hf            4.0845130154        7.3898042948        5.0880677674    0   0   0
Nb            2.6699999570        2.7969306055        3.5155832167    0   0   0
Nb            2.6699999570        5.8763786763        6.6349979432    0   0   0
Ta            1.2093730560        4.3409278516        5.0711258323    0   0   0
Ta            4.1306268580        4.3409278516        5.0711258323    0   0   0
Ta            1.3069650057        1.3138252915        2.0580706330
Ta            1.3025226762        1.3080114850        8.0952343856
Ta            1.3038256855        7.3762055424        2.0455957924
Ta            1.3074959223        7.3653829489        8.0866922168
Ta            4.0329449238        1.3137875624        2.0580752941
Ta            4.0374077225        1.3080078313        8.0952330596
Ta            4.0361669122        7.3762507310        2.0456245339
Ta            4.0324841464        7.3654400126        8.0866818258
Zr            2.6699563879        5.8667599659        3.5272188192
Zr            1.2407837633        4.3219330752        1.9974282598
Zr            1.2372441155        4.3542055224        8.1523643664
Zr            4.0990138987        4.3218750478        1.9974508766
Zr            4.1026123556        4.3541959559        8.1523099075
H             5.1914165524        5.4235223297        5.0656220231

     kinetic energy (Ekin) =           1.75332846 Ry
     temperature           =       13182.31758529 K
     Ekin + Etot (const)   =       -2941.23664126 Ry
     Ions kinetic stress =           33.87 (kbar)
                                     48.98          50.60          -0.53
                                     50.60          52.46          -0.54
                                     -0.53          -0.54           0.15

     The maximum number of steps has been reached.

     End of molecular dynamics calculation

     diffusion coefficients :
     atom     1   D =       0.00000000 cm^2/s
     atom     2   D =       0.00000000 cm^2/s
     atom     3   D =       0.00000000 cm^2/s
     atom     4   D =       0.00000000 cm^2/s
     atom     5   D =       0.00000000 cm^2/s
     atom     6   D =       0.00000000 cm^2/s
     atom     7   D =       0.00000000 cm^2/s
     atom     8   D =       0.00000000 cm^2/s
     atom     9   D =       0.00000000 cm^2/s
     atom    10   D =       0.00000000 cm^2/s
     atom    11   D =       0.00000000 cm^2/s
     atom    12   D =       0.00000000 cm^2/s
     atom    13   D =       0.00000000 cm^2/s
     atom    14   D =       0.00000000 cm^2/s
     atom    15   D =       0.00000000 cm^2/s
     atom    16   D =       0.00000000 cm^2/s
     atom    17   D =       0.00000000 cm^2/s
     atom    18   D =       0.00000000 cm^2/s
     atom    19   D =       0.00000007 cm^2/s
     atom    20   D =       0.00000007 cm^2/s
     atom    21   D =       0.00000006 cm^2/s
     atom    22   D =       0.00000006 cm^2/s
     atom    23   D =       0.00003000 cm^2/s

     < D > =       0.00000216 cm^2/s

     Writing all to output data dir outdir/pwscf.save/

     General routines

     Parallel routines

   This run was terminated on:  19:52:14  11Jun2023

   JOB DONE.