     Program PWSCF v.7.2 starts on  5Jun2023 at 14:29:20

     Reading input from md_Hf5Nb2Ta10Zr5H_10steps_30eV.in
Warning: card &CELL ignored
Warning: card / ignored

     Current dimensions of program PWSCF are:
     Max number of different atomic species (ntypx) = 10
     Max number of k-points (npk) =  40000
     Max angular momentum in pseudopotentials (lmaxx) =  4

     File outdir/pwscf.md deleted, as requested

     gamma-point specific algorithms are used

     R & G space division:  proc/nbgrp/npool/nimage =      12
     Subspace diagonalization in iterative solution of the eigenvalue problem:
     one sub-group per band group will be used

     Using Slab Decomposition

     bravais-lattice index     =            0
     lattice parameter (alat)  =      13.3037  a.u.
     unit-cell volume          =    3744.5260 (a.u.)^3
     number of atoms/cell      =           23
     number of atomic types    =            5
     number of electrons       =       277.00
     number of Kohn-Sham states=          167
     kinetic-energy cutoff     =     120.0000  Ry
     charge density cutoff     =     480.0000  Ry
     scf convergence threshold =      1.0E-03
     mixing beta               =       0.7000
     number of iterations used =            8  TF        mixing
     energy convergence thresh.=      0.0E+00
     force convergence thresh. =      0.0E+00
     Exchange-correlation=  SLA  PW   PBX  PBC
                           (   1   4   3   4   0   0   0)
     nstep                     =           10

     celldm(1)=  13.303672  celldm(2)=   0.000000  celldm(3)=   0.000000
     celldm(4)=   0.000000  celldm(5)=   0.000000  celldm(6)=   0.000000

     crystal axes: (cart. coord. in units of alat)
               a(1) = (   1.000000   0.000000   0.000000 )
               a(2) = (   0.000000   1.048295   0.000000 )
               a(3) = (   0.000000   0.000000   1.517045 )

     reciprocal axes: (cart. coord. in units 2 pi/alat)
               b(1) = (  1.000000  0.000000  0.000000 )
               b(2) = (  0.000000  0.953930  0.000000 )
               b(3) = (  0.000000  0.000000  0.659176 )

     PseudoPot. # 1 for Hf read from file:
     q-e/pseudo/hf_pbe_v1.uspp.F.UPF
     MD5 check sum: 8ee9378dfe14276e333edf04c5e4aa26
     Pseudo is Ultrasoft + core correction, Zval = 12.0
     Generated by new atomic code, or converted to UPF format
     Using radial grid of  921 points,  8 beta functions with:
                l(1) =   0
                l(2) =   0
                l(3) =   0
                l(4) =   1
                l(5) =   1
                l(6) =   2
                l(7) =   2
                l(8) =   3
     Q(r) pseudized with  6 coefficients,  rinner =    1.200   1.200   1.200
                                                       1.200   1.200   1.200
                                                       1.200

     PseudoPot. # 2 for Nb read from file:
     q-e/pseudo/nb_pbe_v1.uspp.F.UPF
     MD5 check sum: 573aab8a2fa660278ed4a62cd769473f
     Pseudo is Ultrasoft + core correction, Zval = 13.0
     Generated by new atomic code, or converted to UPF format
     Using radial grid of  887 points,  6 beta functions with:
                l(1) =   0
                l(2) =   0
                l(3) =   1
                l(4) =   1
                l(5) =   2
                l(6) =   2
     Q(r) pseudized with  6 coefficients,  rinner =    1.000   1.000   1.000
                                                       1.000   1.000

     PseudoPot. # 3 for Ta read from file:
     q-e/pseudo/ta_pbe_v1.uspp.F.UPF
     MD5 check sum: f8bbe9446314a3b8ea5d9f3e3836c939
     Pseudo is Ultrasoft + core correction, Zval = 13.0
     Generated by new atomic code, or converted to UPF format
     Using radial grid of  921 points,  7 beta functions with:
                l(1) =   0
                l(2) =   0
                l(3) =   1
                l(4) =   1
                l(5) =   2
                l(6) =   2
                l(7) =   3
     Q(r) pseudized with  6 coefficients,  rinner =    1.300   1.300   1.300
                                                       1.300   1.300   1.300
                                                       1.300

     PseudoPot. # 4 for Zr read from file:
     q-e/pseudo/zr_pbe_v1.uspp.F.UPF
     MD5 check sum: 5db81b1e868ab7776c4564c113de050b
     Pseudo is Ultrasoft + core correction, Zval = 12.0
     Generated by new atomic code, or converted to UPF format
     Using radial grid of  887 points,  6 beta functions with:
                l(1) =   0
                l(2) =   0
                l(3) =   1
                l(4) =   1
                l(5) =   2
                l(6) =   2
     Q(r) pseudized with  6 coefficients,  rinner =    1.200   1.200   1.200
                                                       1.200   1.200

     PseudoPot. # 5 for H  read from file:
     q-e/pseudo/h_pbe_v1.4.uspp.F.UPF
     MD5 check sum: 761ae9a214b05c3daf00ab9f6b793d6f
     Pseudo is Ultrasoft, Zval =  1.0
     Generated by new atomic code, or converted to UPF format
     Using radial grid of  615 points,  2 beta functions with:
                l(1) =   0
                l(2) =   0
     Q(r) pseudized with  8 coefficients,  rinner =    0.700

     atomic species   valence    mass     pseudopotential
        Hf            12.00   178.49000     Hf( 1.00)
        Nb            13.00    92.90637     Nb( 1.00)
        Ta            13.00   180.94788     Ta( 1.00)
        Zr            12.00    91.22400     Zr( 1.00)
        H              1.00     2.01400     H ( 1.00)

     Starting magnetic structure
     atomic species   magnetization
        Hf           0.000
        Nb           0.000
        Ta           0.000
        Zr           0.000
        H            0.000

     No symmetry found

   Cartesian axes

     site n.     atom                  positions (alat units)
         1           Hf  tau(   1) = (   0.2656250   0.2656250   0.9957387  )
         2           Hf  tau(   2) = (   0.0284091   0.0284091   0.7585227  )
         3           Hf  tau(   3) = (   0.0284091   0.9772727   0.7585227  )
         4           Hf  tau(   4) = (   0.5028409   0.0284091   0.7585227  )
         5           Hf  tau(   5) = (   0.5028409   0.9772727   0.7585227  )
         6           Nb  tau(   6) = (   0.2656250   0.2656250   0.5213068  )
         7           Nb  tau(   7) = (   0.2656250   0.7400569   0.9957387  )
         8           Ta  tau(   8) = (   0.0284091   0.5028409   0.7585227  )
         9           Ta  tau(   9) = (   0.5028409   0.5028409   0.7585227  )
        10           Ta  tau(  10) = (   0.0284091   0.0284091   0.2840909  )
        11           Ta  tau(  11) = (   0.0284091   0.0284091   1.2329545  )
        12           Ta  tau(  12) = (   0.0284091   0.9772727   0.2840909  )
        13           Ta  tau(  13) = (   0.0284091   0.9772727   1.2329545  )
        14           Ta  tau(  14) = (   0.5028409   0.0284091   0.2840909  )
        15           Ta  tau(  15) = (   0.5028409   0.0284091   1.2329545  )
        16           Ta  tau(  16) = (   0.5028409   0.9772727   0.2840909  )
        17           Ta  tau(  17) = (   0.5028409   0.9772727   1.2329545  )
        18           Zr  tau(  18) = (   0.2656250   0.7400569   0.5213068  )
        19           Zr  tau(  19) = (   0.0284091   0.5028409   0.2840909  )
        20           Zr  tau(  20) = (   0.0284091   0.5028409   1.2329545  )
        21           Zr  tau(  21) = (   0.5028409   0.5028409   0.2840909  )
        22           Zr  tau(  22) = (   0.5028409   0.5028409   1.2329545  )
        23           H   tau(  23) = (   0.7159091   0.5028409   0.7585227  )

     number of k points=     1  Gaussian smearing, width (Ry)=  0.0220
                       cart. coord. in units 2pi/alat
        k(    1) = (   0.0000000   0.0000000   0.0000000), wk =   1.0000000

     Check: negative core charge=   -0.000002
     Generating pointlists ...
     new r_m :   0.0410 (alat units)  0.5457 (a.u.) for type    1
     new r_m :   0.1695 (alat units)  2.2548 (a.u.) for type    2
     new r_m :   0.0410 (alat units)  0.5457 (a.u.) for type    3
     new r_m :   0.1695 (alat units)  2.2548 (a.u.) for type    4
     new r_m :   0.0879 (alat units)  1.1693 (a.u.) for type    5

     Initial potential from superposition of free atoms

     starting charge     266.9726, renormalised to     277.0000

     negative rho (up, down):  4.713E-01 4.713E-01
     Starting wfcs are  287 randomized atomic wfcs

     Self-consistent Calculation

     iteration #  1     ecut=   120.00 Ry     beta= 0.70
     Davidson diagonalization with overlap
     ethr =  1.00E-02,  avg # of iterations =  6.0

     negative rho (up, down):  5.739E-01 5.741E-01

     total energy              =   -2626.12998428 Ry
     estimated scf accuracy    <     341.96838177 Ry

     total magnetization       =    -0.01 Bohr mag/cell
     absolute magnetization    =     0.12 Bohr mag/cell

[...]

     Magnetic moment per site  (integrated on atomic sphere of radius R)
     atom   1 (R=0.041)  charge=  0.0281    0.0000
     atom   2 (R=0.041)  charge=  0.2750    0.0001
     atom   3 (R=0.041)  charge=  0.2758    0.0001
     atom   4 (R=0.041)  charge=  0.2750    0.0000
     atom   5 (R=0.041)  charge=  0.2758    0.0000
     atom   6 (R=0.169)  charge= 10.9488    0.0068
     atom   7 (R=0.169)  charge= 10.9558    0.0023
     atom   8 (R=0.041)  charge=  0.0850   -0.0000
     atom   9 (R=0.041)  charge=  0.0859   -0.0000
     atom  10 (R=0.041)  charge=  0.3859   -0.0000
     atom  11 (R=0.041)  charge=  0.3858   -0.0000
     atom  12 (R=0.041)  charge=  0.3867   -0.0000
     atom  13 (R=0.041)  charge=  0.3869   -0.0000
     atom  14 (R=0.041)  charge=  0.3859   -0.0000
     atom  15 (R=0.041)  charge=  0.3858    0.0000
     atom  16 (R=0.041)  charge=  0.3868    0.0000
     atom  17 (R=0.041)  charge=  0.3869   -0.0000
     atom  18 (R=0.169)  charge=  9.8589    0.0143
     atom  19 (R=0.169)  charge=  9.5983    0.0041
     atom  20 (R=0.169)  charge=  9.5935    0.0056
     atom  21 (R=0.169)  charge=  9.6114    0.0460
     atom  22 (R=0.169)  charge=  9.6013    0.0174
     atom  23 (R=0.088)  charge=  0.9149    0.0002

     End of self-consistent calculation

 ------ SPIN UP ------------

          k = 0.0000 0.0000 0.0000 ( 41567 PWs)   bands (ev):

  -154.5149-154.5144-154.4982-154.4976-148.6013-148.5940 -60.4972 -60.4907
   -60.4793 -60.4729 -60.3603 -60.3549 -60.3466 -60.3411 -56.1537 -56.1234
   -56.1212 -56.1090 -56.1068 -55.6897 -50.4168 -50.4097 -49.9773 -49.9542
   -49.8628 -49.8531 -49.8397 -42.6504 -42.6134 -36.9662 -36.9387 -36.9348
   -36.9206 -36.5506 -31.1394 -31.1247 -31.1104 -31.0965 -25.0239 -24.9735
   -22.7218 -22.5420 -22.4671 -22.3689 -22.1985 -22.1045 -18.9235 -18.8655
   -18.7555 -18.7384 -18.7056 -18.7045 -18.6758 -18.5534 -18.5379 -15.2476
   -15.1452 -15.1092 -15.0862 -15.0572 -14.9908 -14.9433 -14.9129 -14.8642
   -14.8462 -14.8277 -14.7937 -14.7902 -14.5231 -14.4840 -12.6555 -12.6142
   -12.5918 -12.5631 -12.4662 -12.4520 -12.3997 -12.3872  -6.8960  -6.6977
    -6.6807  -6.6747  -3.8492  -3.7943  -3.6240  -3.5802  -3.3489  -3.3091
[...]
    12.6745  12.9369  12.9618  13.0641  13.1276  13.1493  13.3061  13.3446
    13.5196  13.6089  13.6628  13.6953  13.7176  13.7634  14.0955  14.1337
    14.1981  14.3163  14.3387  14.4602  14.5544  14.5889  14.6578

     the Fermi energy is    12.0479 ev

!    total energy              =   -2743.57955286 Ry
     estimated scf accuracy    <       0.00040439 Ry
     smearing contrib. (-TS)   =      -0.08195457 Ry
     internal energy E=F+TS    =   -2743.49759829 Ry

     total magnetization       =     1.14 Bohr mag/cell
     absolute magnetization    =     1.30 Bohr mag/cell

     convergence has been achieved in   5 iterations

     negative rho (up, down):  7.973E-01 7.991E-01

     Forces acting on atoms (cartesian axes, Ry/au):

     atom    1 type  1   force =    -0.07155122    0.08224091   -0.05733519
     atom    2 type  1   force =    -0.06479174   63.83021530    0.00434859
     atom    3 type  1   force =    -0.06828927  -63.83207351    0.00737656
     atom    4 type  1   force =     0.08485555   63.77038751    0.00856757
     atom    5 type  1   force =     0.08863159  -63.77232739   -0.00225430
     atom    6 type  2   force =    -0.05069305    0.10036672    0.02785156
     atom    7 type  2   force =    -0.04833938   -0.10189728   -0.02645019
     atom    8 type  3   force =     0.02596888   -0.00046695    0.00380939
     atom    9 type  3   force =    -0.29806843    0.00011154    0.00695000
     atom   10 type  3   force =    -0.04726857  109.77761616   -0.06257197
     atom   11 type  3   force =    -0.04330851  109.76113262    0.05241337
     atom   12 type  3   force =    -0.04187298 -109.77518256   -0.06016225
     atom   13 type  3   force =    -0.04997946 -109.76472363    0.06464174
     atom   14 type  3   force =     0.06425586    0.14777693   -0.07569085
     atom   15 type  3   force =     0.08010078    0.13379897    0.08721401
     atom   16 type  3   force =     0.07467134   -0.13947685   -0.08309765
     atom   17 type  3   force =     0.06808285   -0.14920900    0.07124408
     atom   18 type  4   force =    -0.06495048   -0.06915649    0.04341516
     atom   19 type  4   force =    -0.00838206   -0.01350990   -0.00123394
     atom   20 type  4   force =    -0.00750734    0.01419451   -0.00360083
     atom   21 type  4   force =     0.01246004   -0.01070835   -0.03292407
     atom   22 type  4   force =     0.01063914    0.01095598    0.03012349
     atom   23 type  5   force =     0.35533645   -0.00006524   -0.00263428
     The non-local contrib.  to forces
     atom    1 type  1   force =    -0.05443183   -0.32931388   -0.02787641
     atom    2 type  1   force =     0.12574842  -60.52303587    0.01519293
     atom    3 type  1   force =     0.12508400   60.52268040   -0.00431803
     atom    4 type  1   force =    -0.09611924  -60.52829242    0.01634089
     atom    5 type  1   force =    -0.09481715   60.53097441   -0.01078633
     atom    6 type  2   force =     0.05698849   -0.00263912   -0.08031061
     atom    7 type  2   force =     0.04994926    0.00046030    0.07110992
     atom    8 type  3   force =    -0.40501749    0.00380294    0.00118464
     atom    9 type  3   force =     0.21375721    0.00606340    0.00157709
     atom   10 type  3   force =     0.05263009  -42.48617374    0.08152864
     atom   11 type  3   force =     0.06513180  -42.48937577   -0.09648749
     atom   12 type  3   force =     0.06691921   42.47008329    0.09378944
     atom   13 type  3   force =     0.04835240   42.50454196   -0.08303449
     atom   14 type  3   force =     0.11009293   -0.24143525   -0.05428526
     atom   15 type  3   force =     0.07548042   -0.24154207    0.01515931
     atom   16 type  3   force =     0.06535717    0.23081500   -0.00397194
     atom   17 type  3   force =     0.11450803    0.24588904    0.05029535
     atom   18 type  4   force =     0.03939475    0.00484357   -0.04791525
     atom   19 type  4   force =     0.05345394   -0.00328347    0.02084170
     atom   20 type  4   force =     0.04801523    0.00020227   -0.01831827
     atom   21 type  4   force =    -0.06439409    0.01467023    0.02616235
     atom   22 type  4   force =    -0.06074743   -0.01542952   -0.02507847
     atom   23 type  5   force =    -0.07378220    0.00003375   -0.00003567
     The ionic contribution  to forces
     atom    1 type  1   force =    -1.76931384    8.72282655   11.92919601
     atom    2 type  1   force =   -17.83082121  161.39814143    0.14743257
     atom    3 type  1   force =   -17.82930050 -161.39946068   -0.15457294
     atom    4 type  1   force =    17.90610324  160.59538895    0.14563370
     atom    5 type  1   force =    17.90373916 -160.60221079   -0.15784728
     atom    6 type  2   force =    -1.91470614    9.61691845  -12.59911636
     atom    7 type  2   force =    -1.91466131   -9.62853220   12.59964380
     atom    8 type  3   force =   -21.07396227   -0.00526579    0.01030519
     atom    9 type  3   force =    18.89599975   -0.00253585    0.01017746
     atom   10 type  3   force =   -12.09973729  189.68899683  -22.13030046
     atom   11 type  3   force =   -11.95750138  190.32484631   21.97712258
     atom   12 type  3   force =   -11.95038192 -190.32570330  -21.97200930
     atom   13 type  3   force =   -12.10402444 -189.69263815   22.13361954
     atom   14 type  3   force =    14.11037770   10.26978461  -23.66102389
     atom   15 type  3   force =    13.67237534   10.73755281   23.19326803
     atom   16 type  3   force =    13.66054146  -10.73684061  -23.18125972
     atom   17 type  3   force =    14.11237425  -10.27445721   23.66289656
     atom   18 type  4   force =    -1.76685844   -8.68428343  -11.93561626
     atom   19 type  4   force =   -12.45066422    0.34019525  -20.77768045
     atom   20 type  4   force =   -12.44680017   -0.34363168   20.77024512
     atom   21 type  4   force =    12.12250226    0.34719886  -20.52048175
     atom   22 type  4   force =    12.11963082   -0.34726680   20.51592894
     atom   23 type  5   force =     2.60508916    0.00097645   -0.00556109
     The local contribution  to forces
     atom    1 type  1   force =     1.75715916   -8.28565124  -11.94109388
     atom    2 type  1   force =    17.62008612  -27.42094805   -0.14452411
     atom    3 type  1   force =    17.61591316   27.41888729    0.18211060
     atom    4 type  1   force =   -17.70888254  -26.67928163   -0.14181131
     atom    5 type  1   force =   -17.70427973   26.67955045    0.17729124
     atom    6 type  2   force =     1.81958666   -9.50405683   12.70999878
     atom    7 type  2   force =     1.81831049    9.51099110  -12.67935802
     atom    8 type  3   force =    21.52638325    0.00139172    0.01518851
     atom    9 type  3   force =   -19.42388474   -0.00254937    0.01047663
     atom   10 type  3   force =    11.99049772  -32.30272604   21.97306972
     atom   11 type  3   force =    11.83765180  -32.94376354  -21.82598132
     atom   12 type  3   force =    11.83393539   32.95118029   21.80490370
     atom   13 type  3   force =    11.99170334   32.29707529  -21.98404631
     atom   14 type  3   force =   -14.15989928   -9.86447120   23.63486995
     atom   15 type  3   force =   -13.66774918  -10.33295516  -23.12700982
     atom   16 type  3   force =   -13.65474591   10.34156840   23.10056855
     atom   17 type  3   force =   -14.16042133    9.85791582  -23.64576227
     atom   18 type  4   force =     1.67842534    8.60582069   12.02704559
     atom   19 type  4   force =    12.39301659   -0.34897358   20.75327763
     atom   20 type  4   force =    12.39385775    0.35656529  -20.76599349
     atom   21 type  4   force =   -12.04839871   -0.36633558   20.45616451
     atom   22 type  4   force =   -12.05039890    0.36847762  -20.46337969
     atom   23 type  5   force =    -2.17451703   -0.00094474    0.00533574
     The core correction contribution to forces
     atom    1 type  1   force =    -0.00377850   -0.02100705   -0.00200057
     atom    2 type  1   force =     0.01762861   -9.62571873    0.00194723
     atom    3 type  1   force =     0.01746307    9.62572323   -0.00109820
     atom    4 type  1   force =    -0.01427571   -9.61853501    0.00090806
     atom    5 type  1   force =    -0.01406218    9.61824123   -0.00092071
     atom    6 type  2   force =    -0.00519818   -0.00781767    0.00558858
     atom    7 type  2   force =    -0.00487657    0.00789644   -0.00513332
     atom    8 type  3   force =    -0.03127137    0.00062963    0.00025140
     atom    9 type  3   force =     0.01609217    0.00063414    0.00010562
     atom   10 type  3   force =     0.00511034   -5.12571638    0.00728077
     atom   11 type  3   force =     0.00393635   -5.12702309   -0.00806268
     atom   12 type  3   force =     0.00455050    5.12753979    0.00761899
     atom   13 type  3   force =     0.00552301    5.12496391   -0.00705366
     atom   14 type  3   force =     0.00906369    0.00509427   -0.00318586
     atom   15 type  3   force =     0.00539560    0.00399647    0.00117646
     atom   16 type  3   force =     0.00559903   -0.00415033   -0.00107435
     atom   17 type  3   force =     0.00924682   -0.00521762    0.00293625
     atom   18 type  4   force =    -0.00401954    0.00507432    0.00386155
     atom   19 type  4   force =    -0.00699795    0.00054416   -0.00668165
     atom   20 type  4   force =    -0.00685950   -0.00021404    0.00657532
     atom   21 type  4   force =     0.00745841   -0.00065941   -0.00560413
     atom   22 type  4   force =     0.00732577    0.00077264    0.00554200
     atom   23 type  5   force =     0.00000000    0.00000000    0.00000000
     The Hubbard contrib.    to forces
     atom    1 type  1   force =     0.00000000    0.00000000    0.00000000
     atom    2 type  1   force =     0.00000000    0.00000000    0.00000000
     atom    3 type  1   force =     0.00000000    0.00000000    0.00000000
     atom    4 type  1   force =     0.00000000    0.00000000    0.00000000
     atom    5 type  1   force =     0.00000000    0.00000000    0.00000000
     atom    6 type  2   force =     0.00000000    0.00000000    0.00000000
     atom    7 type  2   force =     0.00000000    0.00000000    0.00000000
     atom    8 type  3   force =     0.00000000    0.00000000    0.00000000
     atom    9 type  3   force =     0.00000000    0.00000000    0.00000000
     atom   10 type  3   force =     0.00000000    0.00000000    0.00000000
     atom   11 type  3   force =     0.00000000    0.00000000    0.00000000
     atom   12 type  3   force =     0.00000000    0.00000000    0.00000000
     atom   13 type  3   force =     0.00000000    0.00000000    0.00000000
     atom   14 type  3   force =     0.00000000    0.00000000    0.00000000
     atom   15 type  3   force =     0.00000000    0.00000000    0.00000000
     atom   16 type  3   force =     0.00000000    0.00000000    0.00000000
     atom   17 type  3   force =     0.00000000    0.00000000    0.00000000
     atom   18 type  4   force =     0.00000000    0.00000000    0.00000000
     atom   19 type  4   force =     0.00000000    0.00000000    0.00000000
     atom   20 type  4   force =     0.00000000    0.00000000    0.00000000
     atom   21 type  4   force =     0.00000000    0.00000000    0.00000000
     atom   22 type  4   force =     0.00000000    0.00000000    0.00000000
     atom   23 type  5   force =     0.00000000    0.00000000    0.00000000
     The SCF correction term to forces
     atom    1 type  1   force =    -0.00000000   -0.00000000   -0.00000000
     atom    2 type  1   force =     0.00000000    0.00000000   -0.00000000
     atom    3 type  1   force =     0.00000000    0.00000000   -0.00000000
     atom    4 type  1   force =    -0.00000000    0.00000000   -0.00000000
     atom    5 type  1   force =    -0.00000000    0.00000000   -0.00000000
     atom    6 type  2   force =    -0.00000000   -0.00000000   -0.00000000
     atom    7 type  2   force =     0.00000000    0.00000000   -0.00000000
     atom    8 type  3   force =     0.00000000   -0.00000000   -0.00000000
     atom    9 type  3   force =     0.00000000   -0.00000000   -0.00000000
     atom   10 type  3   force =     0.00000000    0.00000000    0.00000000
     atom   11 type  3   force =     0.00000000   -0.00000000    0.00000000
     atom   12 type  3   force =     0.00000000    0.00000000    0.00000000
     atom   13 type  3   force =     0.00000000    0.00000000    0.00000000
     atom   14 type  3   force =    -0.00533258   -0.02117621    0.00893779
     atom   15 type  3   force =    -0.00535481   -0.03323379    0.00562360
     atom   16 type  3   force =    -0.00203382    0.02914999    0.00364338
     atom   17 type  3   force =    -0.00757834    0.02668027    0.00188176
     atom   18 type  4   force =    -0.01184599   -0.00059235   -0.00295690
     atom   19 type  4   force =     0.00285618   -0.00197297    0.01001240
     atom   20 type  4   force =     0.00432594    0.00129196    0.00489406
     atom   21 type  4   force =    -0.00466124   -0.00556316    0.01183852
     atom   22 type  4   force =    -0.00512452    0.00442133   -0.00188572
     atom   23 type  5   force =    -0.00140690   -0.00011140   -0.00136969

     Total force =     0.517403     Total SCF correction =     0.062559
     SCF correction compared to forces is large: reduce conv_thr to get better values

     Entering Dynamics:    iteration =    10
                           time      =   0.0051 pico-seconds

ATOMIC_POSITIONS (angstrom)
Hf            1.8699999570        1.8699999570        7.0100002690    0   0   0
Hf            0.2000000000        0.2000000000        5.3399999140    0   0   0
Hf            0.2000000000        6.8799998280        5.3399999140    0   0   0
Hf            3.5399999140        0.2000000000        5.3399999140    0   0   0
Hf            3.5399999140        6.8799998280        5.3399999140    0   0   0
Nb            1.8699999570        1.8699999570        3.6699999570    0   0   0
Nb            1.8699999570        5.2100002690        7.0100002690    0   0   0
Ta            0.2000000000        3.5399999140        5.3399999140    0   0   0
Ta            3.5399999140        3.5399999140        5.3399999140    0   0   0
Ta            0.2000000000        0.2000000000        2.0000000000    0   0   0
Ta            0.2000000000        0.2000000000        8.6799998280    0   0   0
Ta            0.2000000000        6.8799998280        2.0000000000    0   0   0
Ta            0.2000000000        6.8799998280        8.6799998280    0   0   0
Ta            3.5409706464        1.0407446244        1.9988239821
Ta            3.5409889668        1.0407125771        8.6809602918
Ta            3.5410042247        6.0392984466        1.9989897967
Ta            3.5410088724        6.0392274012        8.6812139064
Zr            1.8691742122        5.2075168099        3.6704720079
Zr            0.2005537981        3.5394734370        2.0007090918
Zr            0.2006450833        3.5405752960        8.6792764070
Zr            3.5396025090        3.5395016153        2.0006208763
Zr            3.5395437443        3.5405289229        8.6793479886
H             5.1362176704        3.5407362942        5.3370705808

     kinetic energy (Ekin) =         111.61636383 Ry
     temperature           =     1174855.33523066 K
     Ekin + Etot (const)   =       -2631.96318903 Ry

     The maximum number of steps has been reached.

     End of molecular dynamics calculation

     diffusion coefficients :
     atom     1   D =       0.00000000 cm^2/s
     atom     2   D =       0.00000000 cm^2/s
     atom     3   D =       0.00000000 cm^2/s
     atom     4   D =       0.00000000 cm^2/s
     atom     5   D =       0.00000000 cm^2/s
     atom     6   D =       0.00000000 cm^2/s
     atom     7   D =       0.00000000 cm^2/s
     atom     8   D =       0.00000000 cm^2/s
     atom     9   D =       0.00000000 cm^2/s
     atom    10   D =       0.00000000 cm^2/s
     atom    11   D =       0.00000000 cm^2/s
     atom    12   D =       0.00000000 cm^2/s
     atom    13   D =       0.00000000 cm^2/s
     atom    14   D =       0.00231923 cm^2/s
     atom    15   D =       0.00231905 cm^2/s
     atom    16   D =       0.00231899 cm^2/s
     atom    17   D =       0.00231938 cm^2/s
     atom    18   D =       0.00000002 cm^2/s
     atom    19   D =       0.00000000 cm^2/s
     atom    20   D =       0.00000000 cm^2/s
     atom    21   D =       0.00000000 cm^2/s
     atom    22   D =       0.00000000 cm^2/s
     atom    23   D =       0.00003041 cm^2/s

     < D > =       0.00093071 cm^2/s

     Writing all to output data dir outdir/pwscf.save/

     General routines

     Parallel routines

   This run was terminated on:  15: 8:24   5Jun2023

   JOB DONE.