     Program PWSCF v.7.2 starts on 15Jun2023 at  6: 0:15

     Reading input from md_data/md_Hf5Nb2Ta10Zr5H_20steps_100eV_incident75_polar60.in
Warning: card &CELL ignored
Warning: card / ignored

     Current dimensions of program PWSCF are:
     Max number of different atomic species (ntypx) = 10
     Max number of k-points (npk) =  40000
     Max angular momentum in pseudopotentials (lmaxx) =  4

     File outdir/pwscf.md deleted, as requested

     gamma-point specific algorithms are used

     R & G space division:  proc/nbgrp/npool/nimage =      42
     Subspace diagonalization in iterative solution of the eigenvalue problem:
     one sub-group per band group will be used

     Using Slab Decomposition

     bravais-lattice index     =            0
     lattice parameter (alat)  =      17.6500  a.u.
     unit-cell volume          =    5552.8853 (a.u.)^3
     number of atoms/cell      =           23
     number of atomic types    =            5
     number of electrons       =       277.00
     number of Kohn-Sham states=          167
     kinetic-energy cutoff     =     120.0000  Ry
     charge density cutoff     =     480.0000  Ry
     scf convergence threshold =      1.0E-03
     mixing beta               =       0.7000
     number of iterations used =            8  TF        mixing
     energy convergence thresh.=      0.0E+00
     force convergence thresh. =      0.0E+00
     Exchange-correlation=  SLA  PW   PBX  PBC
                           (   1   4   3   4   0   0   0)
     nstep                     =           20

     celldm(1)=  17.650041  celldm(2)=   0.000000  celldm(3)=   0.000000
     celldm(4)=   0.000000  celldm(5)=   0.000000  celldm(6)=   0.000000

     crystal axes: (cart. coord. in units of alat)
               a(1) = (   1.000000   0.000000   0.000000 )
               a(2) = (   0.000000   0.929336   0.000000 )
               a(3) = (   0.000000   0.000000   1.086698 )

     reciprocal axes: (cart. coord. in units 2 pi/alat)
               b(1) = (  1.000000  0.000000  0.000000 )
               b(2) = (  0.000000  1.076037  0.000000 )
               b(3) = (  0.000000  0.000000  0.920219 )

     PseudoPot. # 1 for Hf read from file:
     q-e/pseudo/hf_pbe_v1.uspp.F.UPF
     MD5 check sum: 8ee9378dfe14276e333edf04c5e4aa26
     Pseudo is Ultrasoft + core correction, Zval = 12.0
     Generated by new atomic code, or converted to UPF format
     Using radial grid of  921 points,  8 beta functions with:
                l(1) =   0
                l(2) =   0
                l(3) =   0
                l(4) =   1
                l(5) =   1
                l(6) =   2
                l(7) =   2
                l(8) =   3
     Q(r) pseudized with  6 coefficients,  rinner =    1.200   1.200   1.200
                                                       1.200   1.200   1.200
                                                       1.200

     PseudoPot. # 2 for Nb read from file:
     q-e/pseudo/nb_pbe_v1.uspp.F.UPF
     MD5 check sum: 573aab8a2fa660278ed4a62cd769473f
     Pseudo is Ultrasoft + core correction, Zval = 13.0
     Generated by new atomic code, or converted to UPF format
     Using radial grid of  887 points,  6 beta functions with:
                l(1) =   0
                l(2) =   0
                l(3) =   1
                l(4) =   1
                l(5) =   2
                l(6) =   2
     Q(r) pseudized with  6 coefficients,  rinner =    1.000   1.000   1.000
                                                       1.000   1.000

     PseudoPot. # 3 for Ta read from file:
     q-e/pseudo/ta_pbe_v1.uspp.F.UPF
     MD5 check sum: f8bbe9446314a3b8ea5d9f3e3836c939
     Pseudo is Ultrasoft + core correction, Zval = 13.0
     Generated by new atomic code, or converted to UPF format
     Using radial grid of  921 points,  7 beta functions with:
                l(1) =   0
                l(2) =   0
                l(3) =   1
                l(4) =   1
                l(5) =   2
                l(6) =   2
                l(7) =   3
     Q(r) pseudized with  6 coefficients,  rinner =    1.300   1.300   1.300
                                                       1.300   1.300   1.300
                                                       1.300

     PseudoPot. # 4 for Zr read from file:
     q-e/pseudo/zr_pbe_v1.uspp.F.UPF
     MD5 check sum: 5db81b1e868ab7776c4564c113de050b
     Pseudo is Ultrasoft + core correction, Zval = 12.0
     Generated by new atomic code, or converted to UPF format
     Using radial grid of  887 points,  6 beta functions with:
                l(1) =   0
                l(2) =   0
                l(3) =   1
                l(4) =   1
                l(5) =   2
                l(6) =   2
     Q(r) pseudized with  6 coefficients,  rinner =    1.200   1.200   1.200
                                                       1.200   1.200

     PseudoPot. # 5 for H  read from file:
     q-e/pseudo/h_pbe_v1.4.uspp.F.UPF
     MD5 check sum: 761ae9a214b05c3daf00ab9f6b793d6f
     Pseudo is Ultrasoft, Zval =  1.0
     Generated by new atomic code, or converted to UPF format
     Using radial grid of  615 points,  2 beta functions with:
                l(1) =   0
                l(2) =   0
     Q(r) pseudized with  8 coefficients,  rinner =    0.700

     atomic species   valence    mass     pseudopotential
        Hf            12.00   178.49000     Hf( 1.00)
        Nb            13.00    92.90637     Nb( 1.00)
        Ta            13.00   180.94788     Ta( 1.00)
        Zr            12.00    91.22400     Zr( 1.00)
        H              1.00     2.01400     H ( 1.00)

     Starting magnetic structure
     atomic species   magnetization
        Hf           0.000
        Nb           0.000
        Ta           0.000
        Zr           0.000
        H            0.000

     No symmetry found

   Cartesian axes

     site n.     atom                  positions (alat units)
         1           Hf  tau(   1) = (   0.2858672   0.3026898   0.7070626  )
         2           Hf  tau(   2) = (   0.1341532   0.1377178   0.5415917  )
         3           Hf  tau(   3) = (   0.1344204   0.7911996   0.5447610  )
         4           Hf  tau(   4) = (   0.4375813   0.1377178   0.5415917  )
         5           Hf  tau(   5) = (   0.4373140   0.7911996   0.5447610  )
         6           Nb  tau(   6) = (   0.2858672   0.2994572   0.3764008  )
         7           Nb  tau(   7) = (   0.2858672   0.6291626   0.7103852  )
         8           Ta  tau(   8) = (   0.1294832   0.4647675   0.5429471  )
         9           Ta  tau(   9) = (   0.4422513   0.4647675   0.5429471  )
        10           Ta  tau(  10) = (   0.1399628   0.1406984   0.2204260  )
        11           Ta  tau(  11) = (   0.1394848   0.1400847   0.8666573  )
        12           Ta  tau(  12) = (   0.1396156   0.7897030   0.2190832  )
        13           Ta  tau(  13) = (   0.1400119   0.7885528   0.8657390  )
        14           Ta  tau(  14) = (   0.4317717   0.1406984   0.2204260  )
        15           Ta  tau(  15) = (   0.4322496   0.1400847   0.8666573  )
        16           Ta  tau(  16) = (   0.4321189   0.7897030   0.2190832  )
        17           Ta  tau(  17) = (   0.4317226   0.7885528   0.8657390  )
        18           Zr  tau(  18) = (   0.2858672   0.6280820   0.3776642  )
        19           Zr  tau(  19) = (   0.1331729   0.4627493   0.2141328  )
        20           Zr  tau(  20) = (   0.1328036   0.4661802   0.8725649  )
        21           Zr  tau(  21) = (   0.4385616   0.4627493   0.2141328  )
        22           Zr  tau(  22) = (   0.4389309   0.4661802   0.8725649  )
        23           H   tau(  23) = (   0.4976729   0.5680863   0.7221855  )

     number of k points=     1  Gaussian smearing, width (Ry)=  0.0220
                       cart. coord. in units 2pi/alat
        k(    1) = (   0.0000000   0.0000000   0.0000000), wk =   1.0000000

     Check: negative core charge=   -0.000002
     Generating pointlists ...
     new r_m :   0.1117 (alat units)  1.9717 (a.u.) for type    1
     new r_m :   0.0911 (alat units)  1.6072 (a.u.) for type    2
     new r_m :   0.0883 (alat units)  1.5594 (a.u.) for type    3
     new r_m :   0.0788 (alat units)  1.3900 (a.u.) for type    4
     new r_m :   0.0788 (alat units)  1.3900 (a.u.) for type    5

     Initial potential from superposition of free atoms

     starting charge     266.9726, renormalised to     277.0000

     negative rho (up, down):  9.216E-01 9.216E-01
     Starting wfcs are  287 randomized atomic wfcs

     Self-consistent Calculation

     iteration #  1     ecut=   120.00 Ry     beta= 0.70
     Davidson diagonalization with overlap
     ethr =  1.00E-02,  avg # of iterations =  2.0

     negative rho (up, down):  9.977E-01 9.973E-01

     total energy              =   -2930.48586107 Ry
     estimated scf accuracy    <     276.77796815 Ry

     total magnetization       =    -0.00 Bohr mag/cell
     absolute magnetization    =     0.09 Bohr mag/cell

[...]

     Magnetic moment per site  (integrated on atomic sphere of radius R)
     atom   1 (R=0.112)  charge=  9.4620    0.0000
     atom   2 (R=0.112)  charge=  9.0571   -0.0002
     atom   3 (R=0.112)  charge=  9.0561   -0.0002
     atom   4 (R=0.112)  charge=  9.0578    0.0001
     atom   5 (R=0.112)  charge=  9.0688   -0.0001
     atom   6 (R=0.091)  charge=  8.6978    0.0000
     atom   7 (R=0.091)  charge=  8.7033   -0.0001
     atom   8 (R=0.088)  charge=  8.1269    0.0001
     atom   9 (R=0.088)  charge=  8.1343   -0.0001
     atom  10 (R=0.088)  charge=  8.1071   -0.0004
     atom  11 (R=0.088)  charge=  8.1055   -0.0006
     atom  12 (R=0.088)  charge=  8.1066   -0.0006
     atom  13 (R=0.088)  charge=  8.1070    0.0006
     atom  14 (R=0.088)  charge=  8.1067   -0.0002
     atom  15 (R=0.088)  charge=  8.1026   -0.0002
     atom  16 (R=0.088)  charge=  8.1064   -0.0008
     atom  17 (R=0.088)  charge=  8.1123   -0.0000
     atom  18 (R=0.079)  charge=  6.3497    0.0001
     atom  19 (R=0.079)  charge=  6.2514   -0.0007
     atom  20 (R=0.079)  charge=  6.2491   -0.0001
     atom  21 (R=0.079)  charge=  6.2505   -0.0007
     atom  22 (R=0.079)  charge=  6.2630   -0.0000
     atom  23 (R=0.079)  charge=  1.0717    0.0000

     End of self-consistent calculation

 ------ SPIN UP ------------

          k = 0.0000 0.0000 0.0000 ( 61588 PWs)   bands (ev):

   -60.7911 -60.7553 -60.7458 -60.7109 -60.6776 -60.6710 -60.6305 -60.6244
   -60.5686 -60.5466 -54.3961 -54.3421 -54.2509 -54.2053 -52.6835 -46.3821
   -46.2398 -41.5917 -41.5845 -41.4895 -41.4178 -39.7843 -27.7796 -27.7507
   -27.6876 -27.6657 -27.6016 -27.5690 -27.4605 -27.4374 -27.4232 -27.3527
   -27.3082 -27.2826 -27.2513 -27.2373 -27.2082 -27.1977 -27.1668 -27.1580
   -27.1407 -27.1227 -27.1068 -27.0749 -26.9635 -26.9381 -26.9312 -26.9085
   -26.8735 -26.8538 -26.8283 -26.8245 -24.1742 -23.9684 -23.6683 -23.5759
   -23.3102 -23.2293 -23.1766 -23.0725 -22.9321 -22.8759 -22.8430 -22.6236
   -22.5755 -22.4649 -22.4494 -22.4219 -22.2671 -22.2418 -21.7446 -21.6793
   -21.6122 -20.1619 -19.8638 -19.8007 -19.7859 -19.5959 -19.5798 -19.5612
[...]

     convergence has been achieved in   4 iterations

     negative rho (up, down):  9.091E-01 9.091E-01

     Forces acting on atoms (cartesian axes, Ry/au):

     atom    1 type  1   force =    -0.00091318   -0.02879792    0.00091699
     atom    2 type  1   force =    -0.11591368   -0.01346417   -0.00571029
     atom    3 type  1   force =    -0.10456896    0.01210391   -0.00213604
     atom    4 type  1   force =     0.11578112   -0.01763306   -0.00881129
     atom    5 type  1   force =     0.10436921    0.01683902   -0.00670712
     atom    6 type  2   force =    -0.00919912   -0.01834274    0.00285238
     atom    7 type  2   force =    -0.00431581    0.00348762   -0.00833175
     atom    8 type  3   force =    -0.10373334    0.00313173   -0.00898677
     atom    9 type  3   force =     0.10543502    0.00334083    0.00894676
     atom   10 type  3   force =    -0.02044377   -0.03266701   -0.05994616
     atom   11 type  3   force =    -0.01508121   -0.03532344    0.05777643
     atom   12 type  3   force =    -0.01686300    0.03634080   -0.05500339
     atom   13 type  3   force =    -0.00837320    0.02796160    0.06525271
     atom   14 type  3   force =     0.02148998   -0.03401320   -0.05867059
     atom   15 type  3   force =     0.02785597   -0.03529670    0.06122571
     atom   16 type  3   force =     0.01593001    0.03821187   -0.05450994
     atom   17 type  3   force =     0.00962372    0.02237053    0.06827069
     atom   18 type  4   force =    -0.00078016    0.02928422   -0.01180723
     atom   19 type  4   force =    -0.12686461   -0.00413908   -0.11838124
     atom   20 type  4   force =    -0.12181332    0.01168576    0.11784666
     atom   21 type  4   force =     0.12412688   -0.00572889   -0.11839841
     atom   22 type  4   force =     0.08141999   -0.06779189    0.20323385
     atom   23 type  5   force =     0.04283149    0.08844021   -0.06892194
     The non-local contrib.  to forces
     atom    1 type  1   force =     0.00260415   -0.01579758    0.02798144
     atom    2 type  1   force =    -0.24630886   -0.16498219    0.01050564
     atom    3 type  1   force =    -0.23607635    0.15672119   -0.02230892
     atom    4 type  1   force =     0.24445383   -0.16027007    0.01847598
     atom    5 type  1   force =     0.27277881    0.10912130    0.02107782
     atom    6 type  2   force =     0.00395260   -0.03448153   -0.04893360
     atom    7 type  2   force =    -0.01125169    0.08093817    0.04188788
     atom    8 type  3   force =    -0.26177033    0.00782831   -0.00036263
     atom    9 type  3   force =     0.27406806    0.04331837    0.04304386
     atom   10 type  3   force =    -0.20318284    0.00619793   -0.20324149
     atom   11 type  3   force =    -0.21124323    0.00299232    0.19734913
     atom   12 type  3   force =    -0.20268262   -0.01983785   -0.17660684
     atom   13 type  3   force =    -0.20029375   -0.00903295    0.20281149
     atom   14 type  3   force =     0.20823899    0.00211943   -0.20477085
     atom   15 type  3   force =     0.22493358    0.01660476    0.18819829
     atom   16 type  3   force =     0.19618388   -0.01716387   -0.18256554
     atom   17 type  3   force =     0.21986137   -0.05180843    0.14931184
     atom   18 type  4   force =     0.00288023    0.05132564   -0.06240043
     atom   19 type  4   force =     0.06069943    0.00970926    0.07114263
     atom   20 type  4   force =     0.04633462   -0.01440168   -0.06086359
     atom   21 type  4   force =    -0.05999010    0.02047068    0.07334224
     atom   22 type  4   force =    -0.04666344   -0.03810730   -0.05957100
     atom   23 type  5   force =    -0.03379970   -0.01506582    0.02480779
     The ionic contribution  to forces
     atom    1 type  1   force =    -0.20376773   -4.69360978   14.02825834
     atom    2 type  1   force =   -39.74435334   -6.14531465    0.74450302
     atom    3 type  1   force =   -39.72792766    6.16027204   -0.80580630
     atom    4 type  1   force =    39.61211274   -6.28596298    0.74589282
     atom    5 type  1   force =    39.44544832    6.37144059   -1.14836480
     atom    6 type  2   force =    -0.42719038   -3.85978162  -14.19445554
     atom    7 type  2   force =    -1.02981792    3.54540486   13.48195216
     atom    8 type  3   force =   -52.30768848    0.06451078   -0.08967067
     atom    9 type  3   force =    51.71271719    0.02432318   -0.44879807
     atom   10 type  3   force =   -36.08292220   -2.09279021  -23.01641244
     atom   11 type  3   force =   -35.17609127   -0.81838748   22.04046489
     atom   12 type  3   force =   -35.26805523    0.81012412  -22.05292586
     atom   13 type  3   force =   -36.18485984    2.26896402   23.04794489
     atom   14 type  3   force =    35.99150901   -2.15246955  -23.06571217
     atom   15 type  3   force =    35.01733198   -0.82196707   22.08640095
     atom   16 type  3   force =    35.17036302    0.85923815  -22.05752621
     atom   17 type  3   force =    35.50529971    3.17668955   23.52735853
     atom   18 type  4   force =    -0.23425932    4.54657518  -13.99036669
     atom   19 type  4   force =   -35.94141379    0.94481979  -25.44677817
     atom   20 type  4   force =   -36.00079523   -1.04270894   25.44723616
     atom   21 type  4   force =    35.81147121    0.96081200  -25.65763130
     atom   22 type  4   force =    34.95819342   -2.34490471   26.41543169
     atom   23 type  5   force =     5.10469579    0.52472273    0.40900476
     The local contribution  to forces
     atom    1 type  1   force =     0.20167531    4.67673746  -14.05015989
     atom    2 type  1   force =    39.89662412    6.29549098   -0.77372989
     atom    3 type  1   force =    39.88156824   -6.30460670    0.81530144
     atom    4 type  1   force =   -39.75997360    6.42259659   -0.78449988
     atom    5 type  1   force =   -39.63605175   -6.45751663    1.11074743
     atom    6 type  2   force =     0.41540700    3.86806976   14.21960220
     atom    7 type  2   force =     1.03889996   -3.60957735  -13.52019709
     atom    8 type  3   force =    52.50696439   -0.06982777    0.06983601
     atom    9 type  3   force =   -51.92669919   -0.06842327    0.39378040
     atom   10 type  3   force =    36.29934512    2.03800819   23.15937170
     atom   11 type  3   force =    35.40869910    0.76961531  -22.17473502
     atom   12 type  3   force =    35.48686150   -0.74084562   22.17415807
     atom   13 type  3   force =    36.41565509   -2.22543485  -23.17789247
     atom   14 type  3   force =   -36.20661957    2.09950819   23.20927413
     atom   15 type  3   force =   -35.24563905    0.75103615  -22.21052546
     atom   16 type  3   force =   -35.37966595   -0.78940428   22.18373712
     atom   17 type  3   force =   -35.73204121   -3.09833640  -23.60448914
     atom   18 type  4   force =     0.23152560   -4.55843754   14.01453672
     atom   19 type  4   force =    35.77293770   -0.95727488   25.24854238
     atom   20 type  4   force =    35.85290657    1.07079841  -25.25542824
     atom   21 type  4   force =   -35.64444813   -0.98525672   25.45586507
     atom   22 type  4   force =   -34.84142707    2.32614148  -26.13589497
     atom   23 type  5   force =    -5.02760584   -0.41846739   -0.49909847
     The core correction contribution to forces
     atom    1 type  1   force =    -0.00025435    0.00148547   -0.00094146
     atom    2 type  1   force =    -0.01193333   -0.00227898    0.00048562
     atom    3 type  1   force =    -0.01184893    0.00228375   -0.00124897
     atom    4 type  1   force =     0.01238958   -0.00064737    0.00043223
     atom    5 type  1   force =     0.01582588   -0.00118059    0.00232931
     atom    6 type  2   force =    -0.00041583    0.00142352    0.00176260
     atom    7 type  2   force =     0.00166884   -0.00428292   -0.00151735
     atom    8 type  3   force =    -0.03238816    0.00115958   -0.00021386
     atom    9 type  3   force =     0.03251585    0.00203834    0.00348052
     atom   10 type  3   force =    -0.02217357    0.00940631   -0.01614034
     atom   11 type  3   force =    -0.02221702    0.00918033    0.01706125
     atom   12 type  3   force =    -0.02074017   -0.00903347   -0.01566262
     atom   13 type  3   force =    -0.02149718   -0.00919636    0.01567114
     atom   14 type  3   force =     0.02116189    0.00950014   -0.01525280
     atom   15 type  3   force =     0.02543624    0.00940576    0.01980526
     atom   16 type  3   force =     0.02117272   -0.00918257   -0.01618559
     atom   17 type  3   force =     0.01830571   -0.00942533    0.01349464
     atom   18 type  4   force =    -0.00008387   -0.00263642    0.00289441
     atom   19 type  4   force =    -0.00963310    0.00000643   -0.00961803
     atom   20 type  4   force =    -0.00876971    0.00052993    0.00905865
     atom   21 type  4   force =     0.00951471   -0.00055023   -0.00988220
     atom   22 type  4   force =     0.00745853   -0.00009446    0.01039992
     atom   23 type  5   force =     0.00000000    0.00000000    0.00000000
     The Hubbard contrib.    to forces
     atom    1 type  1   force =     0.00000000    0.00000000    0.00000000
     atom    2 type  1   force =     0.00000000    0.00000000    0.00000000
     atom    3 type  1   force =     0.00000000    0.00000000    0.00000000
     atom    4 type  1   force =     0.00000000    0.00000000    0.00000000
     atom    5 type  1   force =     0.00000000    0.00000000    0.00000000
     atom    6 type  2   force =     0.00000000    0.00000000    0.00000000
     atom    7 type  2   force =     0.00000000    0.00000000    0.00000000
     atom    8 type  3   force =     0.00000000    0.00000000    0.00000000
     atom    9 type  3   force =     0.00000000    0.00000000    0.00000000
     atom   10 type  3   force =     0.00000000    0.00000000    0.00000000
     atom   11 type  3   force =     0.00000000    0.00000000    0.00000000
     atom   12 type  3   force =     0.00000000    0.00000000    0.00000000
     atom   13 type  3   force =     0.00000000    0.00000000    0.00000000
     atom   14 type  3   force =     0.00000000    0.00000000    0.00000000
     atom   15 type  3   force =     0.00000000    0.00000000    0.00000000
     atom   16 type  3   force =     0.00000000    0.00000000    0.00000000
     atom   17 type  3   force =     0.00000000    0.00000000    0.00000000
     atom   18 type  4   force =     0.00000000    0.00000000    0.00000000
     atom   19 type  4   force =     0.00000000    0.00000000    0.00000000
     atom   20 type  4   force =     0.00000000    0.00000000    0.00000000
     atom   21 type  4   force =     0.00000000    0.00000000    0.00000000
     atom   22 type  4   force =     0.00000000    0.00000000    0.00000000
     atom   23 type  5   force =     0.00000000    0.00000000    0.00000000
     The SCF correction term to forces
     atom    1 type  1   force =    -0.00076031    0.00231134   -0.00475645
     atom    2 type  1   force =    -0.00953202    0.00354549    0.01199030
     atom    3 type  1   force =    -0.00987401   -0.00264154    0.01139168
     atom    4 type  1   force =     0.00720883    0.00657560    0.01035253
     atom    5 type  1   force =     0.00677820   -0.00510083    0.00696809
     atom    6 type  2   force =    -0.00054226    0.00635195    0.02434168
     atom    7 type  2   force =    -0.00340474   -0.00907030   -0.01099236
     atom    8 type  3   force =    -0.00844050   -0.00061434    0.01088936
     atom    9 type  3   force =     0.01324337    0.00200902    0.01690503
     atom   10 type  3   force =    -0.01110003    0.00643561    0.01594138
     atom   11 type  3   force =    -0.01381853    0.00120091   -0.02289884
     atom   12 type  3   force =    -0.01183623   -0.00414157    0.01549884
     atom   13 type  3   force =    -0.01696726    0.00258657   -0.02381736
     atom   14 type  3   force =     0.00760992    0.00725341    0.01725607
     atom   15 type  3   force =     0.00620348    0.00954853   -0.02318836
     atom   16 type  3   force =     0.00828660   -0.00535072    0.01749525
     atom   17 type  3   force =    -0.00139161    0.00517597   -0.01794020
     atom   18 type  4   force =    -0.00043254   -0.00761780    0.02299374
     atom   19 type  4   force =    -0.00904459   -0.00147486    0.01779492
     atom   20 type  4   force =    -0.01107931   -0.00260713   -0.02269134
     atom   21 type  4   force =     0.00798944   -0.00127979    0.01937276
     atom   22 type  4   force =     0.00426880   -0.01090207   -0.02766681
     atom   23 type  5   force =    -0.00004850   -0.00282448   -0.00417105

     Total force =     0.519570     Total SCF correction =     0.097782
     SCF correction compared to forces is large: reduce conv_thr to get better values

     Computing stress (Cartesian axis) and pressure

     negative rho (up, down):  9.091E-01 9.091E-01
          total   stress  (Ry/bohr**3)                   (kbar)     P=       85.04
   0.00063598   0.00002312  -0.00000160           93.56        3.40       -0.24
   0.00002312   0.00068786  -0.00003897            3.40      101.19       -5.73
  -0.00000160  -0.00003897   0.00041039           -0.24       -5.73       60.37

     Entering Dynamics:    iteration =    20
                           time      =   0.0041 pico-seconds

ATOMIC_POSITIONS (angstrom)
Hf            2.6707188270        2.8280585650        6.6060851796
Hf            1.2522930129        1.2873427791        5.0605025119
Hf            1.2548524092        7.3911297647        5.0901867005
Hf            4.0890306252        1.2873552613        5.0605252278
Hf            4.0864768545        7.3911868507        5.0901264027
Nb            2.6708758150        2.7979040364        3.5180949363
Nb            2.6703016026        5.8779587100        6.6368037854
Ta            1.2088124553        4.3422474923        5.0732164911
Ta            4.1180530662        4.3158343614        5.0284871976
Ta            1.3076124146        1.3149412434        2.0602191163
Ta            1.3031884188        1.3091827652        8.0973063103
Ta            1.3044539775        7.3774756171        2.0477274374
Ta            1.3082965621        7.3666672383        8.0888335244
Ta            4.0336093428        1.3150252678        2.0602204974
Ta            4.0380824462        1.3092244918        8.0973432059
Ta            4.0368128641        7.3774100474        2.0477520945
Ta            4.0330235695        7.3666915432        8.0888182976
Zr            2.6707143622        5.8680748249        3.5292966927
Zr            1.2415906376        4.3231933043        1.9994519718
Zr            1.2381494632        4.3554634113        8.1545238440
Zr            4.0997616130        4.3231860436        1.9993927797
Zr            4.1031188280        4.3551835030        8.1547304255
H             4.8676976372        5.6439586274        7.2626832892

     kinetic energy (Ekin) =           8.10457161 Ry
     temperature           =       38776.08032499 K
     Ekin + Etot (const)   =       -2934.97264089 Ry
     Ions kinetic stress =          143.14 (kbar)
                                     34.08          59.75          99.02
                                     59.75         105.48         174.79
                                     99.02         174.79         289.85

     Linear momentum :    0.0000000000    0.0000000000   -0.0000000000

     The maximum number of steps has been reached.

     End of molecular dynamics calculation

     diffusion coefficients :
     atom     1   D =       0.00000002 cm^2/s
     atom     2   D =       0.00000002 cm^2/s
     atom     3   D =       0.00000003 cm^2/s
     atom     4   D =       0.00000004 cm^2/s
     atom     5   D =       0.00000004 cm^2/s
     atom     6   D =       0.00000003 cm^2/s
     atom     7   D =       0.00000002 cm^2/s
     atom     8   D =       0.00000003 cm^2/s
     atom     9   D =       0.00001069 cm^2/s
     atom    10   D =       0.00000001 cm^2/s
     atom    11   D =       0.00000003 cm^2/s
     atom    12   D =       0.00000002 cm^2/s
     atom    13   D =       0.00000004 cm^2/s
     atom    14   D =       0.00000001 cm^2/s
     atom    15   D =       0.00000004 cm^2/s
     atom    16   D =       0.00000002 cm^2/s
     atom    17   D =       0.00000005 cm^2/s
     atom    18   D =       0.00000003 cm^2/s
     atom    19   D =       0.00000003 cm^2/s
     atom    20   D =       0.00000012 cm^2/s
     atom    21   D =       0.00000006 cm^2/s
     atom    22   D =       0.00000016 cm^2/s
     atom    23   D =       0.00176436 cm^2/s

     < D > =       0.00007721 cm^2/s

     Writing all to output data dir outdir/pwscf.save/

     General routines

     Parallel routines

   This run was terminated on:   6:56:37  15Jun2023

   JOB DONE.