     Program PWSCF v.7.2 starts on 12Jun2023 at  4: 5:30

     Reading input from md_data/md_Hf5Nb2Ta10Zr5H_12steps_1000eV_incident75_polar0.in
Warning: card &CELL ignored
Warning: card / ignored

     Current dimensions of program PWSCF are:
     Max number of different atomic species (ntypx) = 10
     Max number of k-points (npk) =  40000
     Max angular momentum in pseudopotentials (lmaxx) =  4

     gamma-point specific algorithms are used

     R & G space division:  proc/nbgrp/npool/nimage =      42
     Subspace diagonalization in iterative solution of the eigenvalue problem:
     one sub-group per band group will be used

     Using Slab Decomposition

     bravais-lattice index     =            0
     lattice parameter (alat)  =      17.6500  a.u.
     unit-cell volume          =    5552.8853 (a.u.)^3
     number of atoms/cell      =           23
     number of atomic types    =            5
     number of electrons       =       277.00
     number of Kohn-Sham states=          167
     kinetic-energy cutoff     =     120.0000  Ry
     charge density cutoff     =     480.0000  Ry
     scf convergence threshold =      1.0E-03
     mixing beta               =       0.7000
     number of iterations used =            8  TF        mixing
     energy convergence thresh.=      0.0E+00
     force convergence thresh. =      0.0E+00
     Exchange-correlation=  SLA  PW   PBX  PBC
                           (   1   4   3   4   0   0   0)
     nstep                     =           12

     celldm(1)=  17.650041  celldm(2)=   0.000000  celldm(3)=   0.000000
     celldm(4)=   0.000000  celldm(5)=   0.000000  celldm(6)=   0.000000

     crystal axes: (cart. coord. in units of alat)
               a(1) = (   1.000000   0.000000   0.000000 )
               a(2) = (   0.000000   0.929336   0.000000 )
               a(3) = (   0.000000   0.000000   1.086698 )

     reciprocal axes: (cart. coord. in units 2 pi/alat)
               b(1) = (  1.000000  0.000000  0.000000 )
               b(2) = (  0.000000  1.076037  0.000000 )
               b(3) = (  0.000000  0.000000  0.920219 )

     PseudoPot. # 1 for Hf read from file:
     q-e/pseudo/hf_pbe_v1.uspp.F.UPF
     MD5 check sum: 8ee9378dfe14276e333edf04c5e4aa26
     Pseudo is Ultrasoft + core correction, Zval = 12.0
     Generated by new atomic code, or converted to UPF format
     Using radial grid of  921 points,  8 beta functions with:
                l(1) =   0
                l(2) =   0
                l(3) =   0
                l(4) =   1
                l(5) =   1
                l(6) =   2
                l(7) =   2
                l(8) =   3
     Q(r) pseudized with  6 coefficients,  rinner =    1.200   1.200   1.200
                                                       1.200   1.200   1.200
                                                       1.200

     PseudoPot. # 2 for Nb read from file:
     q-e/pseudo/nb_pbe_v1.uspp.F.UPF
     MD5 check sum: 573aab8a2fa660278ed4a62cd769473f
     Pseudo is Ultrasoft + core correction, Zval = 13.0
     Generated by new atomic code, or converted to UPF format
     Using radial grid of  887 points,  6 beta functions with:
                l(1) =   0
                l(2) =   0
                l(3) =   1
                l(4) =   1
                l(5) =   2
                l(6) =   2
     Q(r) pseudized with  6 coefficients,  rinner =    1.000   1.000   1.000
                                                       1.000   1.000

     PseudoPot. # 3 for Ta read from file:
     q-e/pseudo/ta_pbe_v1.uspp.F.UPF
     MD5 check sum: f8bbe9446314a3b8ea5d9f3e3836c939
     Pseudo is Ultrasoft + core correction, Zval = 13.0
     Generated by new atomic code, or converted to UPF format
     Using radial grid of  921 points,  7 beta functions with:
                l(1) =   0
                l(2) =   0
                l(3) =   1
                l(4) =   1
                l(5) =   2
                l(6) =   2
                l(7) =   3
     Q(r) pseudized with  6 coefficients,  rinner =    1.300   1.300   1.300
                                                       1.300   1.300   1.300
                                                       1.300

     PseudoPot. # 4 for Zr read from file:
     q-e/pseudo/zr_pbe_v1.uspp.F.UPF
     MD5 check sum: 5db81b1e868ab7776c4564c113de050b
     Pseudo is Ultrasoft + core correction, Zval = 12.0
     Generated by new atomic code, or converted to UPF format
     Using radial grid of  887 points,  6 beta functions with:
                l(1) =   0
                l(2) =   0
                l(3) =   1
                l(4) =   1
                l(5) =   2
                l(6) =   2
     Q(r) pseudized with  6 coefficients,  rinner =    1.200   1.200   1.200
                                                       1.200   1.200

     PseudoPot. # 5 for H  read from file:
     q-e/pseudo/h_pbe_v1.4.uspp.F.UPF
     MD5 check sum: 761ae9a214b05c3daf00ab9f6b793d6f
     Pseudo is Ultrasoft, Zval =  1.0
     Generated by new atomic code, or converted to UPF format
     Using radial grid of  615 points,  2 beta functions with:
                l(1) =   0
                l(2) =   0
     Q(r) pseudized with  8 coefficients,  rinner =    0.700

     atomic species   valence    mass     pseudopotential
        Hf            12.00   178.49000     Hf( 1.00)
        Nb            13.00    92.90637     Nb( 1.00)
        Ta            13.00   180.94788     Ta( 1.00)
        Zr            12.00    91.22400     Zr( 1.00)
        H              1.00     2.01400     H ( 1.00)

     Starting magnetic structure
     atomic species   magnetization
        Hf           0.000
        Nb           0.000
        Ta           0.000
        Zr           0.000
        H            0.000

     No symmetry found

   Cartesian axes

     site n.     atom                  positions (alat units)
         1           Hf  tau(   1) = (   0.2858672   0.3026898   0.7070626  )
         2           Hf  tau(   2) = (   0.1341532   0.1377178   0.5415917  )
         3           Hf  tau(   3) = (   0.1344204   0.7911996   0.5447610  )
         4           Hf  tau(   4) = (   0.4375813   0.1377178   0.5415917  )
         5           Hf  tau(   5) = (   0.4373140   0.7911996   0.5447610  )
         6           Nb  tau(   6) = (   0.2858672   0.2994572   0.3764008  )
         7           Nb  tau(   7) = (   0.2858672   0.6291626   0.7103852  )
         8           Ta  tau(   8) = (   0.1294832   0.4647675   0.5429471  )
         9           Ta  tau(   9) = (   0.4422513   0.4647675   0.5429471  )
        10           Ta  tau(  10) = (   0.1399628   0.1406984   0.2204260  )
        11           Ta  tau(  11) = (   0.1394848   0.1400847   0.8666573  )
        12           Ta  tau(  12) = (   0.1396156   0.7897030   0.2190832  )
        13           Ta  tau(  13) = (   0.1400119   0.7885528   0.8657390  )
        14           Ta  tau(  14) = (   0.4317717   0.1406984   0.2204260  )
        15           Ta  tau(  15) = (   0.4322496   0.1400847   0.8666573  )
        16           Ta  tau(  16) = (   0.4321189   0.7897030   0.2190832  )
        17           Ta  tau(  17) = (   0.4317226   0.7885528   0.8657390  )
        18           Zr  tau(  18) = (   0.2858672   0.6280820   0.3776642  )
        19           Zr  tau(  19) = (   0.1331729   0.4627493   0.2141328  )
        20           Zr  tau(  20) = (   0.1328036   0.4661802   0.8725649  )
        21           Zr  tau(  21) = (   0.4385616   0.4627493   0.2141328  )
        22           Zr  tau(  22) = (   0.4389309   0.4661802   0.8725649  )
        23           H   tau(  23) = (   0.4976729   0.6715045   0.5430600  )

     number of k points=     1  Gaussian smearing, width (Ry)=  0.0220
                       cart. coord. in units 2pi/alat
        k(    1) = (   0.0000000   0.0000000   0.0000000), wk =   1.0000000

     Check: negative core charge=   -0.000002
     Generating pointlists ...
     new r_m :   0.0553 (alat units)  0.9761 (a.u.) for type    1
     new r_m :   0.1098 (alat units)  1.9374 (a.u.) for type    2
     new r_m :   0.0883 (alat units)  1.5583 (a.u.) for type    3
     new r_m :   0.1112 (alat units)  1.9625 (a.u.) for type    4
     new r_m :   0.0553 (alat units)  0.9761 (a.u.) for type    5

     Initial potential from superposition of free atoms

     starting charge     266.9726, renormalised to     277.0000

     negative rho (up, down):  9.211E-01 9.211E-01
     Starting wfcs are  287 randomized atomic wfcs

     Self-consistent Calculation

     iteration #  1     ecut=   120.00 Ry     beta= 0.70
     Davidson diagonalization with overlap
     ethr =  1.00E-02,  avg # of iterations =  2.0

     negative rho (up, down):  9.927E-01 9.923E-01

     total energy              =   -2930.58431981 Ry
     estimated scf accuracy    <     275.85505655 Ry

     total magnetization       =    -0.00 Bohr mag/cell
     absolute magnetization    =     0.09 Bohr mag/cell

[...]

     Magnetic moment per site  (integrated on atomic sphere of radius R)
     atom   1 (R=0.055)  charge=  2.8629    0.0000
     atom   2 (R=0.055)  charge=  2.8460   -0.0000
     atom   3 (R=0.055)  charge=  2.8453    0.0000
     atom   4 (R=0.055)  charge=  2.8470   -0.0000
     atom   5 (R=0.055)  charge=  2.8630   -0.0000
     atom   6 (R=0.110)  charge= 10.3436   -0.0003
     atom   7 (R=0.110)  charge= 10.3481   -0.0001
     atom   8 (R=0.088)  charge=  8.1217    0.0000
     atom   9 (R=0.088)  charge=  8.1184    0.0002
     atom  10 (R=0.088)  charge=  8.1018   -0.0001
     atom  11 (R=0.088)  charge=  8.0980   -0.0008
     atom  12 (R=0.088)  charge=  8.1012   -0.0003
     atom  13 (R=0.088)  charge=  8.1020   -0.0001
     atom  14 (R=0.088)  charge=  8.1021   -0.0003
     atom  15 (R=0.088)  charge=  8.0979   -0.0004
     atom  16 (R=0.088)  charge=  8.1038   -0.0006
     atom  17 (R=0.088)  charge=  8.1015   -0.0003
     atom  18 (R=0.111)  charge=  9.4520   -0.0000
     atom  19 (R=0.111)  charge=  9.0008    0.0002
     atom  20 (R=0.111)  charge=  8.9923    0.0003
     atom  21 (R=0.111)  charge=  9.0060    0.0001
     atom  22 (R=0.111)  charge=  8.9943    0.0003
     atom  23 (R=0.055)  charge=  0.8274   -0.0000

     End of self-consistent calculation

 ------ SPIN UP ------------

          k = 0.0000 0.0000 0.0000 ( 61588 PWs)   bands (ev):

   -60.7790 -60.7747 -60.7334 -60.7312 -60.7002 -60.6813 -60.6572 -60.6375
   -60.5822 -60.5531 -54.3879 -54.3452 -54.2522 -53.8434 -52.6875 -46.2860
   -46.2489 -41.6527 -41.6283 -41.5524 -41.5452 -39.8274 -27.7803 -27.7715
   -27.6944 -27.6827 -27.6003 -27.5836 -27.4721 -27.4616 -27.4432 -27.3309
   -27.3161 -27.2652 -27.2618 -27.2497 -27.2172 -27.1990 -27.1858 -27.1611
   -27.1494 -27.1337 -27.1089 -27.0794 -26.9553 -26.9523 -26.9407 -26.9363
   -26.8834 -26.8785 -26.8540 -26.8413 -24.2483 -24.0584 -23.6804 -23.5489
   -23.3074 -23.1739 -23.1125 -23.0477 -22.9246 -22.9197 -22.7252 -22.5713
   -22.5100 -22.4506 -22.3856 -22.3128 -22.2629 -22.1294 -21.7462 -21.6909
   -21.6172 -20.2140 -19.9293 -19.8552 -19.8544 -19.6195 -19.6080 -19.6036
   -19.5905 -19.5752 -19.5365 -19.3862 -19.3561 -18.1770 -17.9768 -17.8265
[...]
     absolute magnetization    =     0.00 Bohr mag/cell

     convergence has been achieved in   6 iterations

     negative rho (up, down):  9.089E-01 9.089E-01

     Forces acting on atoms (cartesian axes, Ry/au):

     atom    1 type  1   force =    -0.02504681   -0.03771041    0.02154964
     atom    2 type  1   force =    -0.12543583   -0.01318247   -0.00041710
     atom    3 type  1   force =    -0.11401863    0.01183415    0.00422232
     atom    4 type  1   force =     0.13693894   -0.01554774   -0.00091376
     atom    5 type  1   force =     0.11552616    0.00409769    0.00379139
     atom    6 type  2   force =    -0.02093455   -0.02805173    0.00157130
     atom    7 type  2   force =     0.00279157    0.00342219   -0.01170401
     atom    8 type  3   force =    -0.12573920    0.00131786   -0.00326676
     atom    9 type  3   force =     0.18160656    0.04082136   -0.00441116
     atom   10 type  3   force =    -0.02225529   -0.02734720   -0.06081221
     atom   11 type  3   force =    -0.01875574   -0.03241883    0.05579282
     atom   12 type  3   force =    -0.01670008    0.03696974   -0.05421979
     atom   13 type  3   force =    -0.01658909    0.03147723    0.05931523
     atom   14 type  3   force =     0.02484176   -0.03299514   -0.05976915
     atom   15 type  3   force =     0.02045908   -0.03778252    0.05517047
     atom   16 type  3   force =     0.01670625    0.03484609   -0.05536742
     atom   17 type  3   force =     0.01651123    0.02958860    0.05972165
     atom   18 type  4   force =     0.00375630    0.01429799   -0.00946659
     atom   19 type  4   force =    -0.12957945   -0.00238407   -0.11574363
     atom   20 type  4   force =    -0.13326158    0.00734270    0.11568543
     atom   21 type  4   force =     0.13105794   -0.00106041   -0.11738278
     atom   22 type  4   force =     0.13727584    0.00976113    0.11858161
     atom   23 type  5   force =    -0.03915538    0.00270379   -0.00192752
     The non-local contrib.  to forces
     atom    1 type  1   force =     0.00018221   -0.00578196    0.02079471
     atom    2 type  1   force =    -0.25991355   -0.16104375    0.01903785
     atom    3 type  1   force =    -0.24617738    0.15552453   -0.02591208
     atom    4 type  1   force =     0.26700880   -0.16753483    0.01886044
     atom    5 type  1   force =     0.25391590    0.14116231   -0.02646447
     atom    6 type  2   force =    -0.00370129   -0.04385448   -0.05846603
     atom    7 type  2   force =    -0.00215149    0.06188948    0.06228437
     atom    8 type  3   force =    -0.29618526   -0.00121156   -0.00450812
     atom    9 type  3   force =     0.23284613   -0.01067203    0.00958328
     atom   10 type  3   force =    -0.22250336    0.00820909   -0.20695018
     atom   11 type  3   force =    -0.23137923    0.00719525    0.19280122
     atom   12 type  3   force =    -0.19065381   -0.01871483   -0.17732696
     atom   13 type  3   force =    -0.19804492   -0.00030443    0.20716303
     atom   14 type  3   force =     0.22571527    0.01034944   -0.20244378
     atom   15 type  3   force =     0.23784655    0.01501005    0.18497530
     atom   16 type  3   force =     0.19040001   -0.01497582   -0.18585089
     atom   17 type  3   force =     0.19741672    0.00143310    0.21374234
     atom   18 type  4   force =    -0.00204857    0.05571083   -0.06387004
     atom   19 type  4   force =     0.06135179    0.01186195    0.06808998
     atom   20 type  4   force =     0.05594162   -0.01245942   -0.06200470
     atom   21 type  4   force =    -0.06319942    0.01295981    0.07294864
     atom   22 type  4   force =    -0.05882249   -0.01162615   -0.07118485
     atom   23 type  5   force =    -0.00870931    0.00208343   -0.00064398
     The ionic contribution  to forces
     atom    1 type  1   force =    -0.61568575   -4.79630554   14.79110606
     atom    2 type  1   force =   -39.65858520   -6.44213038    0.76426881
     atom    3 type  1   force =   -39.45960243    5.99663687   -0.72150265
     atom    4 type  1   force =    39.35722693   -7.18217861    0.75062845
     atom    5 type  1   force =    39.59471533    5.37892476   -0.72507057
     atom    6 type  2   force =    -0.64758005   -3.79577372  -14.75028636
     atom    7 type  2   force =     0.44832522    3.69694109   13.58846922
     atom    8 type  3   force =   -52.09307336    0.56066674   -0.07974952
     atom    9 type  3   force =    51.42333385    2.22014131   -0.00179985
     atom   10 type  3   force =   -36.02390934   -2.21204465  -23.20271935
     atom   11 type  3   force =   -35.08392675   -0.97177136   22.21641328
     atom   12 type  3   force =   -35.15390247    0.73929601  -22.12349801
     atom   13 type  3   force =   -35.93628101    2.12295964   23.05718578
     atom   14 type  3   force =    35.93686002   -2.31224737  -23.33409729
     atom   15 type  3   force =    34.98580793   -1.07659579   22.35367883
     atom   16 type  3   force =    35.18645714    0.64868977  -22.04174168
     atom   17 type  3   force =    35.96749360    2.02934711   22.97392237
     atom   18 type  4   force =     0.41361266    4.47686277  -13.55204670
     atom   19 type  4   force =   -35.83136411    1.09718166  -25.64033920
     atom   20 type  4   force =   -35.79299197   -0.80576546   25.62563877
     atom   21 type  4   force =    35.82191074    1.29673748  -25.65713298
     atom   22 type  4   force =    35.77274512   -0.60131120   25.62831798
     atom   23 type  5   force =     1.38841390   -0.06826113    0.08035461
     The local contribution  to forces
     atom    1 type  1   force =     0.58344051    4.76740802  -14.78146906
     atom    2 type  1   force =    39.80143693    6.59774943   -0.78051631
     atom    3 type  1   force =    39.60302841   -6.14755099    0.75715986
     atom    4 type  1   force =   -39.48892444    7.34354116   -0.76615485
     atom    5 type  1   force =   -39.74737087   -5.52743785    0.75914694
     atom    6 type  2   force =     0.62415596    3.81856920   14.80795498
     atom    7 type  2   force =    -0.44263434   -3.75449840  -13.65600411
     atom    8 type  3   force =    52.28751114   -0.55851879    0.08450110
     atom    9 type  3   force =   -51.50174869   -2.16272990   -0.01007239
     atom   10 type  3   force =    36.24559122    2.17191323   23.36602729
     atom   11 type  3   force =    35.32290371    0.92498070  -22.37247854
     atom   12 type  3   force =    35.35128490   -0.68092082   22.26008894
     atom   13 type  3   force =    36.14234282   -2.08638609  -23.22171589
     atom   14 type  3   force =   -36.16027861    2.26007770   23.48747231
     atom   15 type  3   force =   -35.23053409    1.01367450  -22.49649406
     atom   16 type  3   force =   -35.37995017   -0.59696999   22.18482939
     atom   17 type  3   force =   -36.17166806   -1.99607107  -23.14186107
     atom   18 type  4   force =    -0.40554152   -4.51848484   13.60619371
     atom   19 type  4   force =    35.64854729   -1.11058465   25.46829615
     atom   20 type  4   force =    35.61299582    0.82564832  -25.46014194
     atom   21 type  4   force =   -35.63584650   -1.30658329   25.47582498
     atom   22 type  4   force =   -35.58666575    0.62432177  -25.44814771
     atom   23 type  5   force =    -1.41748684    0.07199726   -0.08119694
     The core correction contribution to forces
     atom    1 type  1   force =     0.00249298    0.00199770   -0.00163063
     atom    2 type  1   force =    -0.01320611   -0.00202277    0.00075264
     atom    3 type  1   force =    -0.01232815    0.00249188   -0.00146973
     atom    4 type  1   force =     0.01031501   -0.00538462    0.00080574
     atom    5 type  1   force =     0.01340305    0.00216595   -0.00124882
     atom    6 type  2   force =    -0.00014017    0.00196158    0.00215628
     atom    7 type  2   force =     0.00015874   -0.00305216   -0.00251608
     atom    8 type  3   force =    -0.03436074    0.00019666   -0.00013775
     atom    9 type  3   force =     0.02609756    0.00182969    0.00035420
     atom   10 type  3   force =    -0.02316305    0.00975483   -0.01607162
     atom   11 type  3   force =    -0.02477089    0.00979411    0.01661645
     atom   12 type  3   force =    -0.02233314   -0.00909695   -0.01552064
     atom   13 type  3   force =    -0.02183949   -0.00841583    0.01694095
     atom   14 type  3   force =     0.02378437    0.01092335   -0.01468398
     atom   15 type  3   force =     0.02542834    0.01132594    0.01475060
     atom   16 type  3   force =     0.02163526   -0.00996219   -0.01508518
     atom   17 type  3   force =     0.02146998   -0.00921361    0.01587463
     atom   18 type  4   force =     0.00017921   -0.00301399    0.00312899
     atom   19 type  4   force =    -0.00988662   -0.00013141   -0.00922505
     atom   20 type  4   force =    -0.00976189    0.00025925    0.00898951
     atom   21 type  4   force =     0.01014560   -0.00016383   -0.00946895
     atom   22 type  4   force =     0.01019723    0.00018856    0.00942355
     atom   23 type  5   force =     0.00000000    0.00000000    0.00000000
     The Hubbard contrib.    to forces
     atom    1 type  1   force =     0.00000000    0.00000000    0.00000000
     atom    2 type  1   force =     0.00000000    0.00000000    0.00000000
     atom    3 type  1   force =     0.00000000    0.00000000    0.00000000
     atom    4 type  1   force =     0.00000000    0.00000000    0.00000000
     atom    5 type  1   force =     0.00000000    0.00000000    0.00000000
     atom    6 type  2   force =     0.00000000    0.00000000    0.00000000
     atom    7 type  2   force =     0.00000000    0.00000000    0.00000000
     atom    8 type  3   force =     0.00000000    0.00000000    0.00000000
     atom    9 type  3   force =     0.00000000    0.00000000    0.00000000
     atom   10 type  3   force =     0.00000000    0.00000000    0.00000000
     atom   11 type  3   force =     0.00000000    0.00000000    0.00000000
     atom   12 type  3   force =     0.00000000    0.00000000    0.00000000
     atom   13 type  3   force =     0.00000000    0.00000000    0.00000000
     atom   14 type  3   force =     0.00000000    0.00000000    0.00000000
     atom   15 type  3   force =     0.00000000    0.00000000    0.00000000
     atom   16 type  3   force =     0.00000000    0.00000000    0.00000000
     atom   17 type  3   force =     0.00000000    0.00000000    0.00000000
     atom   18 type  4   force =     0.00000000    0.00000000    0.00000000
     atom   19 type  4   force =     0.00000000    0.00000000    0.00000000
     atom   20 type  4   force =     0.00000000    0.00000000    0.00000000
     atom   21 type  4   force =     0.00000000    0.00000000    0.00000000
     atom   22 type  4   force =     0.00000000    0.00000000    0.00000000
     atom   23 type  5   force =     0.00000000    0.00000000    0.00000000
     The SCF correction term to forces
     atom    1 type  1   force =     0.00442173   -0.00505329   -0.00696286
     atom    2 type  1   force =     0.00473059   -0.00575966   -0.00367151
     atom    3 type  1   force =     0.00095941    0.00470719   -0.00376450
     atom    4 type  1   force =    -0.00878887   -0.00401549   -0.00476497
     atom    5 type  1   force =     0.00076124    0.00925787   -0.00228311
     atom    6 type  2   force =     0.00622949   -0.00897897    0.00050100
     atom    7 type  2   force =    -0.00100808    0.00211752   -0.00364883
     atom    8 type  3   force =     0.01026751    0.00016015   -0.00308391
     atom    9 type  3   force =     0.00097619   -0.00777237   -0.00218782
     atom   10 type  3   force =     0.00162773   -0.00520436   -0.00080979
     atom   11 type  3   force =    -0.00168410   -0.00264219    0.00272900
     atom   12 type  3   force =    -0.00119707    0.00638167    0.00232546
     atom   13 type  3   force =    -0.00286800    0.00359927    0.00002993
     atom   14 type  3   force =    -0.00134079   -0.00212292    0.00427216
     atom   15 type  3   force =     0.00180883   -0.00122188   -0.00145163
     atom   16 type  3   force =    -0.00193749    0.00803966    0.00276952
     atom   17 type  3   force =     0.00169747    0.00406841   -0.00166804
     atom   18 type  4   force =    -0.00254700    0.00319856   -0.00258397
     atom   19 type  4   force =     0.00167069   -0.00073628   -0.00227693
     atom   20 type  4   force =     0.00045333   -0.00036465    0.00349237
     atom   21 type  4   force =    -0.00205400   -0.00403524    0.00073411
     atom   22 type  4   force =    -0.00027978   -0.00183652    0.00046122
     atom   23 type  5   force =    -0.00147465   -0.00314043   -0.00015264

     Total force =     0.530371     Total SCF correction =     0.032471

     Computing stress (Cartesian axis) and pressure

     negative rho (up, down):  9.089E-01 9.089E-01
          total   stress  (Ry/bohr**3)                   (kbar)     P=       82.31
   0.00062742   0.00001218  -0.00000189           92.30        1.79       -0.28
   0.00001218   0.00065814  -0.00001466            1.79       96.82       -2.16
  -0.00000189  -0.00001466   0.00039311           -0.28       -2.16       57.83

     Entering Dynamics:    iteration =    12
                           time      =   0.0012 pico-seconds

ATOMIC_POSITIONS (angstrom)
Hf            2.6706528200        2.8295347468        6.6039710418
Hf            1.2535188824        1.2887060897        5.0584632848
Hf            1.2560210811        7.3922521258        5.0880719437
Hf            4.0878054414        1.2887102160        5.0584609282
Hf            4.0851741886        7.3923333645        5.0880734688
Nb            2.6706574570        2.7993381631        3.5156093184
Nb            2.6706437550        5.8788293569        6.6349789014
Ta            1.2099182113        4.3433674546        5.0711216926
Ta            4.0891134344        4.2195522892        5.0688278809
Ta            1.3078805381        1.3165267738        2.0587180320
Ta            1.3034183534        1.3107898947        8.0946360375
Ta            1.3046479115        7.3782976225        2.0461802295
Ta            1.3083479808        7.3675496022        8.0860638229
Ta            4.0334189143        1.3165250006        2.0587156516
Ta            4.0378821703        1.3107881413        8.0946385192
Ta            4.0366581770        7.3783028431        2.0461806300
Ta            4.0329568382        7.3675541980        8.0860632662
Zr            2.6706423475        5.8687560676        3.5273688726
Zr            1.2442344319        4.3245017979        1.9997658978
Zr            1.2407778793        4.3565706243        8.1499910738
Zr            4.0970677300        4.3245015323        1.9997697032
Zr            4.1005272288        4.3565673035        8.1499878316
H             7.3724539453       13.3451351392        5.2783947930

     kinetic energy (Ekin) =        1894.21757893 Ry
     temperature           =     9062827.31776435 K
     Ekin + Etot (const)   =       -1048.74481449 Ry
     Ions kinetic stress =        33453.96 (kbar)
                                  11517.29       31979.10         735.27
                                  31979.10       88797.63        2041.36
                                    735.27        2041.36          46.96

     Linear momentum :   -0.0000000000    0.0000000000    0.0000000000

     The maximum number of steps has been reached.

     End of molecular dynamics calculation

     diffusion coefficients :
     atom     1   D =       0.00000009 cm^2/s
     atom     2   D =       0.00000008 cm^2/s
     atom     3   D =       0.00000009 cm^2/s
     atom     4   D =       0.00000009 cm^2/s
     atom     5   D =       0.00000009 cm^2/s
     atom     6   D =       0.00000009 cm^2/s
     atom     7   D =       0.00000009 cm^2/s
     atom     8   D =       0.00000009 cm^2/s
     atom     9   D =       0.00022504 cm^2/s
     atom    10   D =       0.00000008 cm^2/s
     atom    11   D =       0.00000008 cm^2/s
     atom    12   D =       0.00000009 cm^2/s
     atom    13   D =       0.00000009 cm^2/s
     atom    14   D =       0.00000009 cm^2/s
     atom    15   D =       0.00000008 cm^2/s
     atom    16   D =       0.00000009 cm^2/s
     atom    17   D =       0.00000009 cm^2/s
     atom    18   D =       0.00000009 cm^2/s
     atom    19   D =       0.00000008 cm^2/s
     atom    20   D =       0.00000008 cm^2/s
     atom    21   D =       0.00000009 cm^2/s
     atom    22   D =       0.00000009 cm^2/s
     atom    23   D =       0.78602023 cm^2/s

     < D > =       0.03418466 cm^2/s

     Writing all to output data dir outdir/pwscf.save/

     General routines

     Parallel routines

   This run was terminated on:   4:45:32  12Jun2023

   JOB DONE.