     Program PWSCF v.7.2 starts on 15Jun2023 at  4: 9:27

     Reading input from md_data/md_Hf5Nb2Ta10Zr5H_20steps_100eV_incident75_polar0.in
Warning: card &CELL ignored
Warning: card / ignored

     Current dimensions of program PWSCF are:
     Max number of different atomic species (ntypx) = 10
     Max number of k-points (npk) =  40000
     Max angular momentum in pseudopotentials (lmaxx) =  4

     gamma-point specific algorithms are used

     R & G space division:  proc/nbgrp/npool/nimage =      42
     Subspace diagonalization in iterative solution of the eigenvalue problem:
     one sub-group per band group will be used

     Using Slab Decomposition

     bravais-lattice index     =            0
     lattice parameter (alat)  =      17.6500  a.u.
     unit-cell volume          =    5552.8853 (a.u.)^3
     number of atoms/cell      =           23
     number of atomic types    =            5
     number of electrons       =       277.00
     number of Kohn-Sham states=          167
     kinetic-energy cutoff     =     120.0000  Ry
     charge density cutoff     =     480.0000  Ry
     scf convergence threshold =      1.0E-03
     mixing beta               =       0.7000
     number of iterations used =            8  TF        mixing
     energy convergence thresh.=      0.0E+00
     force convergence thresh. =      0.0E+00
     Exchange-correlation=  SLA  PW   PBX  PBC
                           (   1   4   3   4   0   0   0)
     nstep                     =           20

     celldm(1)=  17.650041  celldm(2)=   0.000000  celldm(3)=   0.000000
     celldm(4)=   0.000000  celldm(5)=   0.000000  celldm(6)=   0.000000

     crystal axes: (cart. coord. in units of alat)
               a(1) = (   1.000000   0.000000   0.000000 )
               a(2) = (   0.000000   0.929336   0.000000 )
               a(3) = (   0.000000   0.000000   1.086698 )

     reciprocal axes: (cart. coord. in units 2 pi/alat)
               b(1) = (  1.000000  0.000000  0.000000 )
               b(2) = (  0.000000  1.076037  0.000000 )
               b(3) = (  0.000000  0.000000  0.920219 )

     PseudoPot. # 1 for Hf read from file:
     q-e/pseudo/hf_pbe_v1.uspp.F.UPF
     MD5 check sum: 8ee9378dfe14276e333edf04c5e4aa26
     Pseudo is Ultrasoft + core correction, Zval = 12.0
     Generated by new atomic code, or converted to UPF format
     Using radial grid of  921 points,  8 beta functions with:
                l(1) =   0
                l(2) =   0
                l(3) =   0
                l(4) =   1
                l(5) =   1
                l(6) =   2
                l(7) =   2
                l(8) =   3
     Q(r) pseudized with  6 coefficients,  rinner =    1.200   1.200   1.200
                                                       1.200   1.200   1.200
                                                       1.200

     PseudoPot. # 2 for Nb read from file:
     q-e/pseudo/nb_pbe_v1.uspp.F.UPF
     MD5 check sum: 573aab8a2fa660278ed4a62cd769473f
     Pseudo is Ultrasoft + core correction, Zval = 13.0
     Generated by new atomic code, or converted to UPF format
     Using radial grid of  887 points,  6 beta functions with:
                l(1) =   0
                l(2) =   0
                l(3) =   1
                l(4) =   1
                l(5) =   2
                l(6) =   2
     Q(r) pseudized with  6 coefficients,  rinner =    1.000   1.000   1.000
                                                       1.000   1.000

     PseudoPot. # 3 for Ta read from file:
     q-e/pseudo/ta_pbe_v1.uspp.F.UPF
     MD5 check sum: f8bbe9446314a3b8ea5d9f3e3836c939
     Pseudo is Ultrasoft + core correction, Zval = 13.0
     Generated by new atomic code, or converted to UPF format
     Using radial grid of  921 points,  7 beta functions with:
                l(1) =   0
                l(2) =   0
                l(3) =   1
                l(4) =   1
                l(5) =   2
                l(6) =   2
                l(7) =   3
     Q(r) pseudized with  6 coefficients,  rinner =    1.300   1.300   1.300
                                                       1.300   1.300   1.300
                                                       1.300

     PseudoPot. # 4 for Zr read from file:
     q-e/pseudo/zr_pbe_v1.uspp.F.UPF
     MD5 check sum: 5db81b1e868ab7776c4564c113de050b
     Pseudo is Ultrasoft + core correction, Zval = 12.0
     Generated by new atomic code, or converted to UPF format
     Using radial grid of  887 points,  6 beta functions with:
                l(1) =   0
                l(2) =   0
                l(3) =   1
                l(4) =   1
                l(5) =   2
                l(6) =   2
     Q(r) pseudized with  6 coefficients,  rinner =    1.200   1.200   1.200
                                                       1.200   1.200

     PseudoPot. # 5 for H  read from file:
     q-e/pseudo/h_pbe_v1.4.uspp.F.UPF
     MD5 check sum: 761ae9a214b05c3daf00ab9f6b793d6f
     Pseudo is Ultrasoft, Zval =  1.0
     Generated by new atomic code, or converted to UPF format
     Using radial grid of  615 points,  2 beta functions with:
                l(1) =   0
                l(2) =   0
     Q(r) pseudized with  8 coefficients,  rinner =    0.700

     atomic species   valence    mass     pseudopotential
        Hf            12.00   178.49000     Hf( 1.00)
        Nb            13.00    92.90637     Nb( 1.00)
        Ta            13.00   180.94788     Ta( 1.00)
        Zr            12.00    91.22400     Zr( 1.00)
        H              1.00     2.01400     H ( 1.00)

     Starting magnetic structure
     atomic species   magnetization
        Hf           0.000
        Nb           0.000
        Ta           0.000
        Zr           0.000
        H            0.000

     No symmetry found

   Cartesian axes

     site n.     atom                  positions (alat units)
         1           Hf  tau(   1) = (   0.2858672   0.3026898   0.7070626  )
         2           Hf  tau(   2) = (   0.1341532   0.1377178   0.5415917  )
         3           Hf  tau(   3) = (   0.1344204   0.7911996   0.5447610  )
         4           Hf  tau(   4) = (   0.4375813   0.1377178   0.5415917  )
         5           Hf  tau(   5) = (   0.4373140   0.7911996   0.5447610  )
         6           Nb  tau(   6) = (   0.2858672   0.2994572   0.3764008  )
         7           Nb  tau(   7) = (   0.2858672   0.6291626   0.7103852  )
         8           Ta  tau(   8) = (   0.1294832   0.4647675   0.5429471  )
         9           Ta  tau(   9) = (   0.4422513   0.4647675   0.5429471  )
        10           Ta  tau(  10) = (   0.1399628   0.1406984   0.2204260  )
        11           Ta  tau(  11) = (   0.1394848   0.1400847   0.8666573  )
        12           Ta  tau(  12) = (   0.1396156   0.7897030   0.2190832  )
        13           Ta  tau(  13) = (   0.1400119   0.7885528   0.8657390  )
        14           Ta  tau(  14) = (   0.4317717   0.1406984   0.2204260  )
        15           Ta  tau(  15) = (   0.4322496   0.1400847   0.8666573  )
        16           Ta  tau(  16) = (   0.4321189   0.7897030   0.2190832  )
        17           Ta  tau(  17) = (   0.4317226   0.7885528   0.8657390  )
        18           Zr  tau(  18) = (   0.2858672   0.6280820   0.3776642  )
        19           Zr  tau(  19) = (   0.1331729   0.4627493   0.2141328  )
        20           Zr  tau(  20) = (   0.1328036   0.4661802   0.8725649  )
        21           Zr  tau(  21) = (   0.4385616   0.4627493   0.2141328  )
        22           Zr  tau(  22) = (   0.4389309   0.4661802   0.8725649  )
        23           H   tau(  23) = (   0.4976729   0.6715045   0.5430600  )

     number of k points=     1  Gaussian smearing, width (Ry)=  0.0220
                       cart. coord. in units 2pi/alat
        k(    1) = (   0.0000000   0.0000000   0.0000000), wk =   1.0000000

     Check: negative core charge=   -0.000002
     Generating pointlists ...
     new r_m :   0.0553 (alat units)  0.9761 (a.u.) for type    1
     new r_m :   0.1098 (alat units)  1.9374 (a.u.) for type    2
     new r_m :   0.0883 (alat units)  1.5583 (a.u.) for type    3
     new r_m :   0.1112 (alat units)  1.9625 (a.u.) for type    4
     new r_m :   0.0553 (alat units)  0.9761 (a.u.) for type    5

     Initial potential from superposition of free atoms

     starting charge     266.9726, renormalised to     277.0000

     negative rho (up, down):  9.211E-01 9.211E-01
     Starting wfcs are  287 randomized atomic wfcs

     Self-consistent Calculation

     iteration #  1     ecut=   120.00 Ry     beta= 0.70
     Davidson diagonalization with overlap
     ethr =  1.00E-02,  avg # of iterations =  2.0

     negative rho (up, down):  9.927E-01 9.923E-01

     total energy              =   -2930.58431981 Ry
     estimated scf accuracy    <     275.85505655 Ry

     total magnetization       =    -0.00 Bohr mag/cell
     absolute magnetization    =     0.09 Bohr mag/cell

[...]

     Magnetic moment per site  (integrated on atomic sphere of radius R)
     atom   1 (R=0.055)  charge=  2.8629  magn=  0.0000
     atom   2 (R=0.055)  charge=  2.8460  magn= -0.0000
     atom   3 (R=0.055)  charge=  2.8453  magn=  0.0000
     atom   4 (R=0.055)  charge=  2.8470  magn= -0.0000
     atom   5 (R=0.055)  charge=  2.8630  magn= -0.0000
     atom   6 (R=0.110)  charge= 10.3436  magn= -0.0003
     atom   7 (R=0.110)  charge= 10.3481  magn= -0.0001
     atom   8 (R=0.088)  charge=  8.1217  magn=  0.0000
     atom   9 (R=0.088)  charge=  8.1184  magn=  0.0002
     atom  10 (R=0.088)  charge=  8.1018  magn= -0.0001
     atom  11 (R=0.088)  charge=  8.0980  magn= -0.0008
     atom  12 (R=0.088)  charge=  8.1012  magn= -0.0003
     atom  13 (R=0.088)  charge=  8.1020  magn= -0.0001
     atom  14 (R=0.088)  charge=  8.1021  magn= -0.0003
     atom  15 (R=0.088)  charge=  8.0979  magn= -0.0004
     atom  16 (R=0.088)  charge=  8.1038  magn= -0.0006
     atom  17 (R=0.088)  charge=  8.1015  magn= -0.0003
     atom  18 (R=0.111)  charge=  9.4520  magn= -0.0000
     atom  19 (R=0.111)  charge=  9.0008  magn=  0.0002
     atom  20 (R=0.111)  charge=  8.9923  magn=  0.0003
     atom  21 (R=0.111)  charge=  9.0060  magn=  0.0001
     atom  22 (R=0.111)  charge=  8.9943  magn=  0.0003
     atom  23 (R=0.055)  charge=  0.8274  magn= -0.0000

     End of self-consistent calculation

 ------ SPIN UP ------------

          k = 0.0000 0.0000 0.0000 ( 61588 PWs)   bands (ev):

   -60.7790 -60.7747 -60.7334 -60.7312 -60.7002 -60.6813 -60.6572 -60.6375
   -60.5822 -60.5531 -54.3879 -54.3452 -54.2522 -53.8434 -52.6875 -46.2860
   -46.2489 -41.6527 -41.6283 -41.5524 -41.5452 -39.8274 -27.7803 -27.7715
   -27.6944 -27.6827 -27.6003 -27.5836 -27.4721 -27.4616 -27.4432 -27.3309
   -27.3161 -27.2652 -27.2618 -27.2497 -27.2172 -27.1990 -27.1858 -27.1611
   -27.1494 -27.1337 -27.1089 -27.0794 -26.9553 -26.9523 -26.9407 -26.9363
   -26.8834 -26.8785 -26.8540 -26.8413 -24.2483 -24.0584 -23.6804 -23.5489
   -23.3074 -23.1739 -23.1125 -23.0477 -22.9246 -22.9197 -22.7252 -22.5713
   -22.5100 -22.4506 -22.3856 -22.3128 -22.2629 -22.1294 -21.7462 -21.6909
[...]
     absolute magnetization    =     0.00 Bohr mag/cell

     convergence has been achieved in   5 iterations

     negative rho (up, down):  9.080E-01 9.080E-01

     Forces acting on atoms (cartesian axes, Ry/au):

     atom    1 type  1   force =    -0.00900587   -0.03172758    0.01177313
     atom    2 type  1   force =    -0.13506718   -0.00730943    0.00133224
     atom    3 type  1   force =    -0.11149818    0.01224393    0.00790851
     atom    4 type  1   force =     0.11923734   -0.00480315    0.00302133
     atom    5 type  1   force =    -0.37631657    0.36271468    0.02255053
     atom    6 type  2   force =    -0.00778262   -0.01734001    0.00827749
     atom    7 type  2   force =    -0.00472722    0.00023060   -0.01077530
     atom    8 type  3   force =    -0.10622831    0.00385598   -0.00481062
     atom    9 type  3   force =     0.13426461    0.05018309   -0.00722729
     atom   10 type  3   force =    -0.02064870   -0.02675842   -0.06041186
     atom   11 type  3   force =    -0.01874786   -0.03416847    0.05280671
     atom   12 type  3   force =    -0.01498092    0.03435276   -0.05462187
     atom   13 type  3   force =    -0.01693829    0.03129733    0.05674026
     atom   14 type  3   force =     0.02113629   -0.03347346   -0.06546239
     atom   15 type  3   force =     0.02108611   -0.03963709    0.05920087
     atom   16 type  3   force =     0.01703272    0.04388837   -0.05669290
     atom   17 type  3   force =     0.01717333    0.03907614    0.05738975
     atom   18 type  4   force =    -0.00463842    0.00863912   -0.00419126
     atom   19 type  4   force =    -0.12374080   -0.00687739   -0.11648474
     atom   20 type  4   force =    -0.12988812    0.00490081    0.11447481
     atom   21 type  4   force =     0.11857203   -0.00567353   -0.11728224
     atom   22 type  4   force =     0.12575453    0.00432176    0.11701109
     atom   23 type  5   force =     0.50595211   -0.38793606   -0.01452625
     The non-local contrib.  to forces
     atom    1 type  1   force =     0.00243106   -0.01341632    0.02031492
     atom    2 type  1   force =    -0.25122550   -0.15849203    0.01945861
     atom    3 type  1   force =    -0.19669816    0.17078536   -0.02466939
     atom    4 type  1   force =     0.23300821   -0.18950941    0.01892860
     atom    5 type  1   force =     0.16600103    0.18159972   -0.02350278
     atom    6 type  2   force =     0.00497409   -0.04835922   -0.06373913
     atom    7 type  2   force =    -0.00860277    0.06611039    0.05715706
     atom    8 type  3   force =    -0.25936254    0.00970993   -0.00676115
     atom    9 type  3   force =     0.27118786    0.02421865   -0.00571231
     atom   10 type  3   force =    -0.20704273    0.00344401   -0.20549957
     atom   11 type  3   force =    -0.21302582    0.00090809    0.19197856
     atom   12 type  3   force =    -0.20340701   -0.02291398   -0.17563419
     atom   13 type  3   force =    -0.20935900   -0.00308422    0.20669625
     atom   14 type  3   force =     0.21054859    0.00534486   -0.21500485
     atom   15 type  3   force =     0.21804206    0.00753354    0.20242256
     atom   16 type  3   force =     0.21653585   -0.02365414   -0.17044807
     atom   17 type  3   force =     0.21948510   -0.00608947    0.20227001
     atom   18 type  4   force =    -0.00749885    0.05681048   -0.06157172
     atom   19 type  4   force =     0.06246807    0.00562189    0.07148388
     atom   20 type  4   force =     0.05831881   -0.01707533   -0.06790232
     atom   21 type  4   force =    -0.06442965    0.00915009    0.06474051
     atom   22 type  4   force =    -0.05782298   -0.01600379   -0.06057772
     atom   23 type  5   force =    -0.10722695    0.07134727    0.00224595
     The ionic contribution  to forces
     atom    1 type  1   force =    -0.36051904   -4.68861537   14.37217971
     atom    2 type  1   force =   -39.79101468   -6.10301144    0.77992149
     atom    3 type  1   force =   -39.78137414    6.10119595   -0.71105566
     atom    4 type  1   force =    39.51970285   -6.11588663    0.77813509
     atom    5 type  1   force =    36.45501141    8.02303926   -0.63915965
     atom    6 type  2   force =    -0.37629540   -3.65140711  -14.28782395
     atom    7 type  2   force =    -0.32275840    3.36885712   14.08953034
     atom    8 type  3   force =   -52.28607774    0.10400579   -0.06527634
     atom    9 type  3   force =    51.59534563    0.03721383   -0.02341075
     atom   10 type  3   force =   -36.08509856   -2.04719925  -23.10241328
     atom   11 type  3   force =   -35.16068746   -0.80143053   22.10674932
     atom   12 type  3   force =   -35.27921035    0.77542014  -22.17476196
     atom   13 type  3   force =   -36.06525912    2.15766461   23.10182069
     atom   14 type  3   force =    35.95279909   -2.01509575  -23.22929463
     atom   15 type  3   force =    35.03027819   -0.76964536   22.23186815
     atom   16 type  3   force =    35.02142653    0.81965286  -22.49098485
     atom   17 type  3   force =    35.80760166    2.19978389   23.41633505
     atom   18 type  4   force =    -0.30126829    4.15053473  -14.00028084
     atom   19 type  4   force =   -35.89087133    0.93985723  -25.50972928
     atom   20 type  4   force =   -35.87366314   -0.96641843   25.48678133
     atom   21 type  4   force =    35.76944370    0.91213570  -25.64467284
     atom   22 type  4   force =    35.75322091   -0.99427633   25.61964761
     atom   23 type  5   force =     6.66926767   -1.43637493   -0.10410475
     The local contribution  to forces
     atom    1 type  1   force =     0.35057695    4.66177360  -14.36713991
     atom    2 type  1   force =    39.91964927    6.25605628   -0.78024707
     atom    3 type  1   force =    39.87205911   -6.26394644    0.76491700
     atom    4 type  1   force =   -39.64151773    6.30615763   -0.77683488
     atom    5 type  1   force =   -37.01250329   -7.84325994    0.70451299
     atom    6 type  2   force =     0.36613946    3.68212426   14.37320852
     atom    7 type  2   force =     0.32650075   -3.42429205  -14.14024911
     atom    8 type  3   force =    52.46971815   -0.10765055    0.08256877
     atom    9 type  3   force =   -51.76410840   -0.01156156    0.03802106
     atom   10 type  3   force =    36.29650504    2.01552437   23.26212421
     atom   11 type  3   force =    35.37864582    0.74917587  -22.26622594
     atom   12 type  3   force =    35.49342949   -0.71305221   22.30885089
     atom   13 type  3   force =    36.28095174   -2.10523992  -23.27253100
     atom   14 type  3   force =   -36.16318371    1.97071737   23.39429118
     atom   15 type  3   force =   -35.24869599    0.70366336  -22.39550383
     atom   16 type  3   force =   -35.24385353   -0.74527035   22.61602866
     atom   17 type  3   force =   -36.03145848   -2.13714006  -23.57819586
     atom   18 type  4   force =     0.30497138   -4.19953994   14.07000474
     atom   19 type  4   force =    35.71829101   -0.95335154   25.33090955
     atom   20 type  4   force =    35.69110007    0.98813193  -25.31594671
     atom   21 type  4   force =   -35.59800613   -0.92747311   25.47005416
     atom   22 type  4   force =   -35.57358772    1.01425838  -25.45188883
     atom   23 type  5   force =    -6.05461752    0.97758181    0.09057417
     The core correction contribution to forces
     atom    1 type  1   force =     0.00020265    0.00161834   -0.00176140
     atom    2 type  1   force =    -0.01168722   -0.00185955    0.00090317
     atom    3 type  1   force =    -0.00703782    0.00254179   -0.00208286
     atom    4 type  1   force =     0.00943772   -0.00453467    0.00075051
     atom    5 type  1   force =     0.01725882    0.00393589   -0.00134948
     atom    6 type  2   force =    -0.00029616    0.00226817    0.00268431
     atom    7 type  2   force =     0.00033270   -0.00341799   -0.00224660
     atom    8 type  3   force =    -0.03093803   -0.00044181   -0.00034369
     atom    9 type  3   force =     0.03083182   -0.00117671   -0.00127183
     atom   10 type  3   force =    -0.02204584    0.00860090   -0.01753410
     atom   11 type  3   force =    -0.02362846    0.00859120    0.01814695
     atom   12 type  3   force =    -0.02245808   -0.01035471   -0.01479655
     atom   13 type  3   force =    -0.02239086   -0.00932907    0.01645114
     atom   14 type  3   force =     0.02154025    0.00981999   -0.01745520
     atom   15 type  3   force =     0.02305322    0.01034435    0.01783809
     atom   16 type  3   force =     0.02375435   -0.01039795   -0.01360601
     atom   17 type  3   force =     0.02303382   -0.00896445    0.01479216
     atom   18 type  4   force =     0.00039143   -0.00326155    0.00318203
     atom   19 type  4   force =    -0.00979613    0.00022391   -0.00948516
     atom   20 type  4   force =    -0.00973657    0.00056006    0.00940099
     atom   21 type  4   force =     0.00994800    0.00016530   -0.00895918
     atom   22 type  4   force =     0.00974200    0.00056175    0.00885699
     atom   23 type  5   force =     0.00000000    0.00000000    0.00000000
     The Hubbard contrib.    to forces
     atom    1 type  1   force =     0.00000000    0.00000000    0.00000000
     atom    2 type  1   force =     0.00000000    0.00000000    0.00000000
     atom    3 type  1   force =     0.00000000    0.00000000    0.00000000
     atom    4 type  1   force =     0.00000000    0.00000000    0.00000000
     atom    5 type  1   force =     0.00000000    0.00000000    0.00000000
     atom    6 type  2   force =     0.00000000    0.00000000    0.00000000
     atom    7 type  2   force =     0.00000000    0.00000000    0.00000000
     atom    8 type  3   force =     0.00000000    0.00000000    0.00000000
     atom    9 type  3   force =     0.00000000    0.00000000    0.00000000
     atom   10 type  3   force =     0.00000000    0.00000000    0.00000000
     atom   11 type  3   force =     0.00000000    0.00000000    0.00000000
     atom   12 type  3   force =     0.00000000    0.00000000    0.00000000
     atom   13 type  3   force =     0.00000000    0.00000000    0.00000000
     atom   14 type  3   force =     0.00000000    0.00000000    0.00000000
     atom   15 type  3   force =     0.00000000    0.00000000    0.00000000
     atom   16 type  3   force =     0.00000000    0.00000000    0.00000000
     atom   17 type  3   force =     0.00000000    0.00000000    0.00000000
     atom   18 type  4   force =     0.00000000    0.00000000    0.00000000
     atom   19 type  4   force =     0.00000000    0.00000000    0.00000000
     atom   20 type  4   force =     0.00000000    0.00000000    0.00000000
     atom   21 type  4   force =     0.00000000    0.00000000    0.00000000
     atom   22 type  4   force =     0.00000000    0.00000000    0.00000000
     atom   23 type  5   force =     0.00000000    0.00000000    0.00000000
     The SCF correction term to forces
     atom    1 type  1   force =    -0.00158701    0.00686244   -0.01039486
     atom    2 type  1   force =    -0.00067859   -0.00005243   -0.01727862
     atom    3 type  1   force =     0.00166330    0.00161753   -0.01777524
     atom    4 type  1   force =    -0.00128324   -0.00107981   -0.01653266
     atom    5 type  1   force =    -0.00197407   -0.00264999   -0.01652522
     atom    6 type  2   force =    -0.00219414   -0.00201584   -0.01462692
     atom    7 type  2   force =    -0.00008902   -0.00707660   -0.01354166
     atom    8 type  3   force =     0.00054233   -0.00181711   -0.01357289
     atom    9 type  3   force =     0.00111817    0.00143916   -0.01342812
     atom   10 type  3   force =    -0.00285613   -0.00717818    0.00433621
     atom   11 type  3   force =     0.00005854    0.00853717    0.00358317
     atom   12 type  3   force =    -0.00322449    0.00520378    0.00314527
     atom   13 type  3   force =    -0.00077058   -0.00876379    0.00572851
     atom   14 type  3   force =    -0.00045746   -0.00430964    0.00342644
     atom   15 type  3   force =    -0.00148091    0.00841728    0.00400124
     atom   16 type  3   force =    -0.00072002    0.00350824    0.00374271
     atom   17 type  3   force =    -0.00137830   -0.00856351    0.00361373
     atom   18 type  4   force =    -0.00112362    0.00404566   -0.01410014
     atom   19 type  4   force =    -0.00372194    0.00072139    0.00176161
     atom   20 type  4   force =     0.00420319   -0.00034715    0.00356685
     atom   21 type  4   force =     0.00172658    0.00029874    0.00298045
     atom   22 type  4   force =    -0.00568722   -0.00026798    0.00239837
     atom   23 type  5   force =    -0.00136062   -0.00053995   -0.00181630

     Total force =     0.956864     Total SCF correction =     0.055158

     Computing stress (Cartesian axis) and pressure

     negative rho (up, down):  9.080E-01 9.080E-01
          total   stress  (Ry/bohr**3)                   (kbar)     P=       96.11
   0.00082935  -0.00013036  -0.00000344          122.00      -19.18       -0.51
  -0.00013036   0.00074745  -0.00000977          -19.18      109.95       -1.44
  -0.00000344  -0.00000977   0.00038317           -0.51       -1.44       56.37

     Entering Dynamics:    iteration =    20
                           time      =   0.0041 pico-seconds

ATOMIC_POSITIONS (angstrom)
Hf            2.6706697323        2.8292842512        6.6040755511
Hf            1.2522877474        1.2885543225        5.0584309844
Hf            1.2548164782        7.3923720573        5.0881077806
Hf            4.0892932635        1.2886037869        5.0583917555
Hf            4.0858913232        7.3932093034        5.0881836802
Nb            2.6707111559        2.7990341147        3.5158256990
Nb            2.6704832222        5.8790321394        6.6347934781
Ta            1.2087921966        4.3434092226        5.0710804767
Ta            4.1146388373        4.2916337964        5.0711881708
Ta            1.3076200580        1.3162051886        2.0580919640
Ta            1.3031826887        1.3104107935        8.0952147188
Ta            1.3045164057        7.3786550350        2.0456028608
Ta            1.3082001084        7.3678525780        8.0866877528
Ta            4.0336008245        1.3161841702        2.0580681506
Ta            4.0380512760        1.3103980867        8.0952416169
Ta            4.0367987121        7.3787266230        2.0456183800
Ta            4.0331017042        7.3679195603        8.0866733305
Zr            2.6704678860        5.8691707255        3.5272056496
Zr            1.2416764713        4.3243533747        1.9974015061
Zr            1.2381513430        4.3566590190        8.1523610003
Zr            4.0995417650        4.3243432752        1.9974257386
Zr            4.1031080200        4.3566137717        8.1523403258
H             5.2304463003        6.8141001133        5.0619207599

     kinetic energy (Ekin) =           8.17320660 Ry
     temperature           =       39104.46237933 K
     Ekin + Etot (const)   =       -2934.62573447 Ry
     Ions kinetic stress =          144.35 (kbar)
                                     84.57         170.95          -0.90
                                    170.95         348.32          -1.81
                                     -0.90          -1.81           0.15

     Linear momentum :   -0.0000000000   -0.0000000000    0.0000000000

     The maximum number of steps has been reached.

     End of molecular dynamics calculation

     diffusion coefficients :
     atom     1   D =       0.00000002 cm^2/s
     atom     2   D =       0.00000002 cm^2/s
     atom     3   D =       0.00000003 cm^2/s
     atom     4   D =       0.00000004 cm^2/s
     atom     5   D =       0.00000006 cm^2/s
     atom     6   D =       0.00000002 cm^2/s
     atom     7   D =       0.00000003 cm^2/s
     atom     8   D =       0.00000003 cm^2/s
     atom     9   D =       0.00001101 cm^2/s
     atom    10   D =       0.00000002 cm^2/s
     atom    11   D =       0.00000002 cm^2/s
     atom    12   D =       0.00000004 cm^2/s
     atom    13   D =       0.00000003 cm^2/s
     atom    14   D =       0.00000002 cm^2/s
     atom    15   D =       0.00000002 cm^2/s
     atom    16   D =       0.00000004 cm^2/s
     atom    17   D =       0.00000004 cm^2/s
     atom    18   D =       0.00000004 cm^2/s
     atom    19   D =       0.00000007 cm^2/s
     atom    20   D =       0.00000007 cm^2/s
     atom    21   D =       0.00000009 cm^2/s
     atom    22   D =       0.00000010 cm^2/s
     atom    23   D =       0.00259644 cm^2/s

     < D > =       0.00011340 cm^2/s

     Writing all to output data dir outdir/pwscf.save/

     General routines

     Parallel routines

   This run was terminated on:   5: 5:21  15Jun2023

   JOB DONE.