     Program PWSCF v.7.2 starts on 14Jun2023 at 22:12: 7

     Reading input from md_data/md_Hf5Nb2Ta10Zr5H_20steps_200eV_incident30_polar30.in
Warning: card &CELL ignored
Warning: card / ignored

     Current dimensions of program PWSCF are:
     Max number of different atomic species (ntypx) = 10
     Max number of k-points (npk) =  40000
     Max angular momentum in pseudopotentials (lmaxx) =  4

     File outdir/pwscf.md deleted, as requested

     gamma-point specific algorithms are used

     R & G space division:  proc/nbgrp/npool/nimage =      42
     Subspace diagonalization in iterative solution of the eigenvalue problem:
     one sub-group per band group will be used

     Using Slab Decomposition

     bravais-lattice index     =            0
     lattice parameter (alat)  =      17.6500  a.u.
     unit-cell volume          =    5552.8853 (a.u.)^3
     number of atoms/cell      =           23
     number of atomic types    =            5
     number of electrons       =       277.00
     number of Kohn-Sham states=          167
     kinetic-energy cutoff     =     120.0000  Ry
     charge density cutoff     =     480.0000  Ry
     scf convergence threshold =      1.0E-03
     mixing beta               =       0.7000
     number of iterations used =            8  TF        mixing
     energy convergence thresh.=      0.0E+00
     force convergence thresh. =      0.0E+00
     Exchange-correlation=  SLA  PW   PBX  PBC
                           (   1   4   3   4   0   0   0)
     nstep                     =           20

     celldm(1)=  17.650041  celldm(2)=   0.000000  celldm(3)=   0.000000
     celldm(4)=   0.000000  celldm(5)=   0.000000  celldm(6)=   0.000000

     crystal axes: (cart. coord. in units of alat)
               a(1) = (   1.000000   0.000000   0.000000 )
               a(2) = (   0.000000   0.929336   0.000000 )
               a(3) = (   0.000000   0.000000   1.086698 )

     reciprocal axes: (cart. coord. in units 2 pi/alat)
               b(1) = (  1.000000  0.000000  0.000000 )
               b(2) = (  0.000000  1.076037  0.000000 )
               b(3) = (  0.000000  0.000000  0.920219 )

     PseudoPot. # 1 for Hf read from file:
     q-e/pseudo/hf_pbe_v1.uspp.F.UPF
     MD5 check sum: 8ee9378dfe14276e333edf04c5e4aa26
     Pseudo is Ultrasoft + core correction, Zval = 12.0
     Generated by new atomic code, or converted to UPF format
     Using radial grid of  921 points,  8 beta functions with:
                l(1) =   0
                l(2) =   0
                l(3) =   0
                l(4) =   1
                l(5) =   1
                l(6) =   2
                l(7) =   2
                l(8) =   3
     Q(r) pseudized with  6 coefficients,  rinner =    1.200   1.200   1.200
                                                       1.200   1.200   1.200
                                                       1.200

     PseudoPot. # 2 for Nb read from file:
     q-e/pseudo/nb_pbe_v1.uspp.F.UPF
     MD5 check sum: 573aab8a2fa660278ed4a62cd769473f
     Pseudo is Ultrasoft + core correction, Zval = 13.0
     Generated by new atomic code, or converted to UPF format
     Using radial grid of  887 points,  6 beta functions with:
                l(1) =   0
                l(2) =   0
                l(3) =   1
                l(4) =   1
                l(5) =   2
                l(6) =   2
     Q(r) pseudized with  6 coefficients,  rinner =    1.000   1.000   1.000
                                                       1.000   1.000

     PseudoPot. # 3 for Ta read from file:
     q-e/pseudo/ta_pbe_v1.uspp.F.UPF
     MD5 check sum: f8bbe9446314a3b8ea5d9f3e3836c939
     Pseudo is Ultrasoft + core correction, Zval = 13.0
     Generated by new atomic code, or converted to UPF format
     Using radial grid of  921 points,  7 beta functions with:
                l(1) =   0
                l(2) =   0
                l(3) =   1
                l(4) =   1
                l(5) =   2
                l(6) =   2
                l(7) =   3
     Q(r) pseudized with  6 coefficients,  rinner =    1.300   1.300   1.300
                                                       1.300   1.300   1.300
                                                       1.300

     PseudoPot. # 4 for Zr read from file:
     q-e/pseudo/zr_pbe_v1.uspp.F.UPF
     MD5 check sum: 5db81b1e868ab7776c4564c113de050b
     Pseudo is Ultrasoft + core correction, Zval = 12.0
     Generated by new atomic code, or converted to UPF format
     Using radial grid of  887 points,  6 beta functions with:
                l(1) =   0
                l(2) =   0
                l(3) =   1
                l(4) =   1
                l(5) =   2
                l(6) =   2
     Q(r) pseudized with  6 coefficients,  rinner =    1.200   1.200   1.200
                                                       1.200   1.200

     PseudoPot. # 5 for H  read from file:
     q-e/pseudo/h_pbe_v1.4.uspp.F.UPF
     MD5 check sum: 761ae9a214b05c3daf00ab9f6b793d6f
     Pseudo is Ultrasoft, Zval =  1.0
     Generated by new atomic code, or converted to UPF format
     Using radial grid of  615 points,  2 beta functions with:
                l(1) =   0
                l(2) =   0
     Q(r) pseudized with  8 coefficients,  rinner =    0.700

     atomic species   valence    mass     pseudopotential
        Hf            12.00   178.49000     Hf( 1.00)
        Nb            13.00    92.90637     Nb( 1.00)
        Ta            13.00   180.94788     Ta( 1.00)
        Zr            12.00    91.22400     Zr( 1.00)
        H              1.00     2.01400     H ( 1.00)

     Starting magnetic structure
     atomic species   magnetization
        Hf           0.000
        Nb           0.000
        Ta           0.000
        Zr           0.000
        H            0.000

     No symmetry found

   Cartesian axes

     site n.     atom                  positions (alat units)
         1           Hf  tau(   1) = (   0.2858672   0.3026898   0.7070626  )
         2           Hf  tau(   2) = (   0.1341532   0.1377178   0.5415917  )
         3           Hf  tau(   3) = (   0.1344204   0.7911996   0.5447610  )
         4           Hf  tau(   4) = (   0.4375813   0.1377178   0.5415917  )
         5           Hf  tau(   5) = (   0.4373140   0.7911996   0.5447610  )
         6           Nb  tau(   6) = (   0.2858672   0.2994572   0.3764008  )
         7           Nb  tau(   7) = (   0.2858672   0.6291626   0.7103852  )
         8           Ta  tau(   8) = (   0.1294832   0.4647675   0.5429471  )
         9           Ta  tau(   9) = (   0.4422513   0.4647675   0.5429471  )
        10           Ta  tau(  10) = (   0.1399628   0.1406984   0.2204260  )
        11           Ta  tau(  11) = (   0.1394848   0.1400847   0.8666573  )
        12           Ta  tau(  12) = (   0.1396156   0.7897030   0.2190832  )
        13           Ta  tau(  13) = (   0.1400119   0.7885528   0.8657390  )
        14           Ta  tau(  14) = (   0.4317717   0.1406984   0.2204260  )
        15           Ta  tau(  15) = (   0.4322496   0.1400847   0.8666573  )
        16           Ta  tau(  16) = (   0.4321189   0.7897030   0.2190832  )
        17           Ta  tau(  17) = (   0.4317226   0.7885528   0.8657390  )
        18           Zr  tau(  18) = (   0.2858672   0.6280820   0.3776642  )
        19           Zr  tau(  19) = (   0.1331729   0.4627493   0.2141328  )
        20           Zr  tau(  20) = (   0.1328036   0.4661802   0.8725649  )
        21           Zr  tau(  21) = (   0.4385616   0.4627493   0.2141328  )
        22           Zr  tau(  22) = (   0.4389309   0.4661802   0.8725649  )
        23           H   tau(  23) = (   0.6276957   0.5573903   0.5965931  )

     number of k points=     1  Gaussian smearing, width (Ry)=  0.0220
                       cart. coord. in units 2pi/alat
        k(    1) = (   0.0000000   0.0000000   0.0000000), wk =   1.0000000

     Check: negative core charge=   -0.000002
     Generating pointlists ...
     new r_m :   0.1117 (alat units)  1.9717 (a.u.) for type    1
     new r_m :   0.1098 (alat units)  1.9374 (a.u.) for type    2
     new r_m :   0.0883 (alat units)  1.5589 (a.u.) for type    3
     new r_m :   0.1112 (alat units)  1.9625 (a.u.) for type    4
     new r_m :   0.0883 (alat units)  1.5589 (a.u.) for type    5

     Initial potential from superposition of free atoms

     starting charge     266.9726, renormalised to     277.0000

     negative rho (up, down):  9.217E-01 9.217E-01
     Starting wfcs are  287 randomized atomic wfcs

     Self-consistent Calculation

     iteration #  1     ecut=   120.00 Ry     beta= 0.70
     Davidson diagonalization with overlap
     ethr =  1.00E-02,  avg # of iterations =  2.0

     negative rho (up, down):  9.956E-01 9.953E-01

     total energy              =   -2930.55206247 Ry
     estimated scf accuracy    <     277.08287383 Ry

     total magnetization       =    -0.00 Bohr mag/cell
     absolute magnetization    =     0.09 Bohr mag/cell

[...]

     iteration # 10     ecut=   120.00 Ry     beta= 0.70
     Davidson diagonalization with overlap
     c_bands:  1 eigenvalues not converged
     ethr =  2.20E-05,  avg # of iterations = 18.0

[...]

     Magnetic moment per site  (integrated on atomic sphere of radius R)
     atom   1 (R=0.112)  charge=  9.4619    0.0002
     atom   2 (R=0.112)  charge=  9.0595    0.0003
     atom   3 (R=0.112)  charge=  9.0583    0.0002
     atom   4 (R=0.112)  charge=  9.0578   -0.0002
     atom   5 (R=0.112)  charge=  9.0501    0.0005
     atom   6 (R=0.110)  charge= 10.3491    0.0005
     atom   7 (R=0.110)  charge= 10.3487   -0.0000
     atom   8 (R=0.088)  charge=  8.1255   -0.0001
     atom   9 (R=0.088)  charge=  8.1159    0.0003
     atom  10 (R=0.088)  charge=  8.1059    0.0006
     atom  11 (R=0.088)  charge=  8.1033    0.0008
     atom  12 (R=0.088)  charge=  8.1063    0.0010
     atom  13 (R=0.088)  charge=  8.1037    0.0007
     atom  14 (R=0.088)  charge=  8.1055    0.0011
     atom  15 (R=0.088)  charge=  8.1023    0.0006
     atom  16 (R=0.088)  charge=  8.1058    0.0001
     atom  17 (R=0.088)  charge=  8.1084    0.0017
     atom  18 (R=0.111)  charge=  9.4532    0.0003
     atom  19 (R=0.111)  charge=  9.0000    0.0004
     atom  20 (R=0.111)  charge=  8.9968    0.0002
     atom  21 (R=0.111)  charge=  8.9994    0.0003
     atom  22 (R=0.111)  charge=  8.9961    0.0004
     atom  23 (R=0.088)  charge=  0.9730    0.0000

     End of self-consistent calculation

 ------ SPIN UP ------------

          k = 0.0000 0.0000 0.0000 ( 61588 PWs)   bands (ev):

   -60.7969 -60.7877 -60.7524 -60.7427 -60.7176 -60.7115 -60.6733 -60.6682
   -60.5299 -60.4052 -54.4014 -54.3530 -54.2738 -54.2267 -52.7107 -46.2809
   -46.2730 -41.6637 -41.6530 -41.5682 -41.5517 -39.8135 -27.7971 -27.7910
   -27.7128 -27.7032 -27.6101 -27.6039 -27.4841 -27.4737 -27.3817 -27.3473
   -27.3121 -27.2850 -27.2710 -27.2522 -27.2399 -27.1858 -27.1788 -27.1568
   -27.1020 -27.0773 -27.0171 -26.9754 -26.9686 -26.9618 -26.9529 -26.9064
   -26.9014 -26.8947 -26.8715 -26.8690 -24.1867 -23.9741 -23.6746 -23.5831
   -23.3304 -23.1978 -23.1753 -23.0734 -22.9472 -22.8744 -22.8532 -22.6327
[...]
     absolute magnetization    =     0.00 Bohr mag/cell

     convergence has been achieved in   4 iterations

     negative rho (up, down):  9.089E-01 9.089E-01

     Forces acting on atoms (cartesian axes, Ry/au):

     atom    1 type  1   force =    -0.00778754   -0.03424851    0.02284985
     atom    2 type  1   force =    -0.11335850   -0.01746451    0.00033095
     atom    3 type  1   force =    -0.13205679    0.01068239    0.00845909
     atom    4 type  1   force =     0.11411296   -0.01715329   -0.00008869
     atom    5 type  1   force =     0.12804975    0.00838507    0.00846088
     atom    6 type  2   force =    -0.01498335   -0.02291942   -0.00486091
     atom    7 type  2   force =    -0.00115946    0.01187684   -0.00863936
     atom    8 type  3   force =    -0.13018404    0.00909909    0.00017346
     atom    9 type  3   force =     0.14991765    0.02554486    0.00788977
     atom   10 type  3   force =    -0.01833854   -0.02839085   -0.06051546
     atom   11 type  3   force =    -0.01527908   -0.03455437    0.05433454
     atom   12 type  3   force =    -0.01886084    0.03529782   -0.05502328
     atom   13 type  3   force =    -0.02594427    0.03189402    0.05765968
     atom   14 type  3   force =     0.02167204   -0.03296973   -0.06258992
     atom   15 type  3   force =     0.01632090   -0.03732165    0.05524921
     atom   16 type  3   force =     0.01972446    0.03650468   -0.05722150
     atom   17 type  3   force =     0.02672640    0.03217785    0.05858312
     atom   18 type  4   force =    -0.00410821    0.02565994   -0.01341457
     atom   19 type  4   force =    -0.12527421   -0.00584651   -0.11880026
     atom   20 type  4   force =    -0.13939529    0.00520355    0.11515012
     atom   21 type  4   force =     0.12612788   -0.00650201   -0.12135903
     atom   22 type  4   force =     0.14001615    0.00652413    0.11422306
     atom   23 type  5   force =     0.00406193   -0.00147943   -0.00085076
     The non-local contrib.  to forces
     atom    1 type  1   force =     0.00633543   -0.00947880    0.01876138
     atom    2 type  1   force =    -0.25047776   -0.16100479    0.01772181
     atom    3 type  1   force =    -0.25350321    0.15970652   -0.02234090
     atom    4 type  1   force =     0.25490800   -0.16507430    0.01680566
     atom    5 type  1   force =     0.25707656    0.15864434   -0.02382916
     atom    6 type  2   force =     0.00660573   -0.04266309   -0.05082976
     atom    7 type  2   force =     0.00503386    0.05991354    0.05892585
     atom    8 type  3   force =    -0.29096512    0.00801770    0.00423234
     atom    9 type  3   force =     0.24962848    0.00326692    0.00329202
     atom   10 type  3   force =    -0.20294134    0.00336451   -0.21037717
     atom   11 type  3   force =    -0.21022363    0.00231782    0.19914659
     atom   12 type  3   force =    -0.20670587   -0.02069816   -0.18323314
     atom   13 type  3   force =    -0.24374665   -0.00877403    0.19632515
     atom   14 type  3   force =     0.20288664    0.00191705   -0.20883821
     atom   15 type  3   force =     0.20782050    0.00128134    0.19836249
     atom   16 type  3   force =     0.20522825   -0.01912990   -0.18389562
     atom   17 type  3   force =     0.24347726   -0.00561202    0.19925463
     atom   18 type  4   force =     0.00294910    0.05257203   -0.05988276
     atom   19 type  4   force =     0.06159889    0.00838268    0.06708591
     atom   20 type  4   force =     0.05875798   -0.01305760   -0.06985778
     atom   21 type  4   force =    -0.06250365    0.00856414    0.07154256
     atom   22 type  4   force =    -0.06217774   -0.01193855   -0.07128604
     atom   23 type  5   force =     0.00136195   -0.00008034   -0.00072366
     The ionic contribution  to forces
     atom    1 type  1   force =    -0.06338561   -4.83691113   14.50013266
     atom    2 type  1   force =   -39.64472107   -6.19689964    0.74541442
     atom    3 type  1   force =   -39.31102727    6.27271513   -0.82116143
     atom    4 type  1   force =    39.73545817   -6.32471381    0.78707092
     atom    5 type  1   force =    39.51110220    5.96442489   -0.77779959
     atom    6 type  2   force =    -0.28972630   -4.02410279  -14.51157892
     atom    7 type  2   force =     0.30174873    3.69125675   14.07302431
     atom    8 type  3   force =   -52.32631899    0.01342899   -0.12018721
     atom    9 type  3   force =    51.64899740    0.59433151    0.10764440
     atom   10 type  3   force =   -36.01278981   -2.10149433  -23.10292056
     atom   11 type  3   force =   -35.02394138   -0.81928130   22.12838264
     atom   12 type  3   force =   -35.13754554    0.82192957  -22.16143303
     atom   13 type  3   force =   -35.75791320    2.25308257   23.17216639
     atom   14 type  3   force =    36.03824803   -2.12477580  -23.11565185
     atom   15 type  3   force =    35.07469027   -0.80419399   22.10901771
     atom   16 type  3   force =    35.19538469    0.78543990  -22.10902035
     atom   17 type  3   force =    35.84735142    2.17456814   23.08406314
     atom   18 type  4   force =     0.07973938    4.68190930  -14.10079092
     atom   19 type  4   force =   -35.84903194    0.94116867  -25.59115843
     atom   20 type  4   force =   -35.65195578   -1.03340785   25.60954038
     atom   21 type  4   force =    35.94479449    1.00536258  -25.60558140
     atom   22 type  4   force =    35.81235923   -0.96931655   25.38463663
     atom   23 type  5   force =    -0.12151712    0.03547921    0.31619009
     The local contribution  to forces
     atom    1 type  1   force =     0.05256803    4.80712641  -14.48473269
     atom    2 type  1   force =    39.79726239    6.33872780   -0.75540593
     atom    3 type  1   force =    39.43955481   -6.42522244    0.86443938
     atom    4 type  1   force =   -39.89140248    6.47478712   -0.79546685
     atom    5 type  1   force =   -39.66124883   -6.11365618    0.82174982
     atom    6 type  2   force =     0.27453541    4.03797060   14.55541491
     atom    7 type  2   force =    -0.30429700   -3.73243534  -14.12691872
     atom    8 type  3   force =    52.52365822   -0.01081534    0.12678296
     atom    9 type  3   force =   -51.79385752   -0.57942986   -0.09609204
     atom   10 type  3   force =    36.22797586    2.06185284   23.26182984
     atom   11 type  3   force =    35.24797054    0.77080209  -22.28491688
     atom   12 type  3   force =    35.35546678   -0.75240993   22.29854987
     atom   13 type  3   force =    36.00249093   -2.19929282  -23.32269691
     atom   14 type  3   force =   -36.24166657    2.08121070   23.26392445
     atom   15 type  3   force =   -35.28605226    0.75278120  -22.25902487
     atom   16 type  3   force =   -35.40366432   -0.71535501   22.23839946
     atom   17 type  3   force =   -36.08496398   -2.12272740  -23.23294365
     atom   18 type  4   force =    -0.08299593   -4.70489682   14.14646694
     atom   19 type  4   force =    35.67918421   -0.95865603   25.40583658
     atom   20 type  4   force =    35.46690678    1.04937285  -25.42882666
     atom   21 type  4   force =   -35.76714081   -1.02393751   25.41106786
     atom   22 type  4   force =   -35.62148480    0.98545663  -25.20012157
     atom   23 type  5   force =     0.12890834   -0.03454353   -0.31337959
     The core correction contribution to forces
     atom    1 type  1   force =     0.00061718    0.00124185   -0.00153125
     atom    2 type  1   force =    -0.01244419   -0.00169191    0.00128039
     atom    3 type  1   force =    -0.01084806    0.00492357   -0.00170754
     atom    4 type  1   force =     0.01348037   -0.00213239    0.00091040
     atom    5 type  1   force =     0.01182053    0.00511740   -0.00184902
     atom    6 type  2   force =    -0.00042624    0.00188563    0.00188848
     atom    7 type  2   force =    -0.00021923   -0.00311730   -0.00235547
     atom    8 type  3   force =    -0.03361630    0.00037464    0.00033723
     atom    9 type  3   force =     0.03123528    0.00037185    0.00057923
     atom   10 type  3   force =    -0.02234215    0.00925153   -0.01678997
     atom   11 type  3   force =    -0.02288968    0.00921958    0.01573116
     atom   12 type  3   force =    -0.02335088   -0.01026100   -0.01593455
     atom   13 type  3   force =    -0.02408269   -0.00837053    0.01510054
     atom   14 type  3   force =     0.02205842    0.00929816   -0.01621476
     atom   15 type  3   force =     0.02255832    0.00941805    0.01555008
     atom   16 type  3   force =     0.02293735   -0.01043772   -0.01573453
     atom   17 type  3   force =     0.02376356   -0.00863277    0.01511879
     atom   18 type  4   force =    -0.00012235   -0.00285144    0.00289634
     atom   19 type  4   force =    -0.00981910    0.00005868   -0.00930036
     atom   20 type  4   force =    -0.01003929    0.00042117    0.00943404
     atom   21 type  4   force =     0.00998539    0.00006711   -0.00960863
     atom   22 type  4   force =     0.01035639    0.00037144    0.00945766
     atom   23 type  5   force =     0.00000000    0.00000000    0.00000000
     The Hubbard contrib.    to forces
     atom    1 type  1   force =     0.00000000    0.00000000    0.00000000
     atom    2 type  1   force =     0.00000000    0.00000000    0.00000000
     atom    3 type  1   force =     0.00000000    0.00000000    0.00000000
     atom    4 type  1   force =     0.00000000    0.00000000    0.00000000
     atom    5 type  1   force =     0.00000000    0.00000000    0.00000000
     atom    6 type  2   force =     0.00000000    0.00000000    0.00000000
     atom    7 type  2   force =     0.00000000    0.00000000    0.00000000
     atom    8 type  3   force =     0.00000000    0.00000000    0.00000000
     atom    9 type  3   force =     0.00000000    0.00000000    0.00000000
     atom   10 type  3   force =     0.00000000    0.00000000    0.00000000
     atom   11 type  3   force =     0.00000000    0.00000000    0.00000000
     atom   12 type  3   force =     0.00000000    0.00000000    0.00000000
     atom   13 type  3   force =     0.00000000    0.00000000    0.00000000
     atom   14 type  3   force =     0.00000000    0.00000000    0.00000000
     atom   15 type  3   force =     0.00000000    0.00000000    0.00000000
     atom   16 type  3   force =     0.00000000    0.00000000    0.00000000
     atom   17 type  3   force =     0.00000000    0.00000000    0.00000000
     atom   18 type  4   force =     0.00000000    0.00000000    0.00000000
     atom   19 type  4   force =     0.00000000    0.00000000    0.00000000
     atom   20 type  4   force =     0.00000000    0.00000000    0.00000000
     atom   21 type  4   force =     0.00000000    0.00000000    0.00000000
     atom   22 type  4   force =     0.00000000    0.00000000    0.00000000
     atom   23 type  5   force =     0.00000000    0.00000000    0.00000000
     The SCF correction term to forces
     atom    1 type  1   force =    -0.00378647    0.00376566   -0.00920180
     atom    2 type  1   force =    -0.00284179    0.00339655   -0.00810128
     atom    3 type  1   force =     0.00390302   -0.00144787   -0.01019196
     atom    4 type  1   force =     0.00180499   -0.00002740   -0.00883036
     atom    5 type  1   force =     0.00943539   -0.00615287   -0.00923271
     atom    6 type  2   force =    -0.00583585    0.00398275    0.00082285
     atom    7 type  2   force =    -0.00328972   -0.00374830   -0.01073686
     atom    8 type  3   force =    -0.00280574   -0.00191440   -0.01041340
     atom    9 type  3   force =     0.01405009    0.00699696   -0.00695538
     atom   10 type  3   force =    -0.00810500   -0.00137288    0.00832085
     atom   11 type  3   force =    -0.00605884    0.00237995   -0.00343051
     atom   12 type  3   force =    -0.00658923   -0.00327014    0.00760602
     atom   13 type  3   force =    -0.00255658   -0.00475866   -0.00265702
     atom   14 type  3   force =     0.00028160   -0.00062733    0.01476891
     atom   15 type  3   force =    -0.00255985    0.00338427   -0.00807774
     atom   16 type  3   force =    -0.00002542   -0.00402009    0.01360799
     atom   17 type  3   force =    -0.00276577   -0.00542559   -0.00633133
     atom   18 type  4   force =    -0.00354233   -0.00108061   -0.00152571
     atom   19 type  4   force =    -0.00707018    0.00319200    0.00931448
     atom   20 type  4   force =    -0.00292888    0.00186749   -0.00456140
     atom   21 type  4   force =     0.00112855    0.00343418    0.01179904
     atom   22 type  4   force =     0.00109915    0.00194367   -0.00788517
     atom   23 type  5   force =    -0.00455515   -0.00234227   -0.00235913

     Total force =     0.519230     Total SCF correction =     0.050844

     Computing stress (Cartesian axis) and pressure

     negative rho (up, down):  9.089E-01 9.089E-01
          total   stress  (Ry/bohr**3)                   (kbar)     P=       82.03
   0.00063189   0.00000484   0.00000364           92.95        0.71        0.54
   0.00000484   0.00065464  -0.00001110            0.71       96.30       -1.63
   0.00000364  -0.00001110   0.00038627            0.54       -1.63       56.82

     Entering Dynamics:    iteration =    20
                           time      =   0.0041 pico-seconds

ATOMIC_POSITIONS (angstrom)
Hf            2.6731196276        2.8284111873        6.6049944908
Hf            1.2547202725        1.2876380129        5.0593330385
Hf            1.2572039956        7.3914787328        5.0889931605
Hf            4.0914512883        1.2876777864        5.0593131463
Hf            4.0890468017        7.3913554253        5.0890175755
Nb            2.6731276023        2.7981509303        3.5166444585
Nb            2.6729658136        5.8781434408        6.6355876062
Ta            1.2111084216        4.3425724980        5.0720311123
Ta            4.0584855611        4.3035434320        5.0490435258
Ta            1.3100792175        1.3153082772        2.0590034367
Ta            1.3056276917        1.3095205591        8.0961042921
Ta            1.3068761046        7.3777745093        2.0464968108
Ta            1.3105761750        7.3669709882        8.0875792621
Ta            4.0360491182        1.3153404225        2.0590083360
Ta            4.0405013712        1.3095297443        8.0961083501
Ta            4.0392817184        7.3777668193        2.0465186283
Ta            4.0355487205        7.3669940746        8.0875664724
Zr            2.6731435018        5.8683968498        3.5281415906
Zr            1.2439797609        4.3235160385        1.9982676231
Zr            1.2404502354        4.3557729552        8.1532438664
Zr            4.1021136665        4.3234542343        1.9983120793
Zr            4.1057269855        4.3557503067        8.1531920093
H             7.6267526462        6.1538678691        6.1502445216

     kinetic energy (Ekin) =          15.96648616 Ry
     temperature           =       76391.17520314 K
     Ekin + Etot (const)   =       -2926.97313139 Ry
     Ions kinetic stress =          281.99 (kbar)
                                    618.32         322.23         191.77
                                    322.23         168.01          99.98
                                    191.77          99.98          59.63

     Linear momentum :    0.0000000000    0.0000000000    0.0000000000

     The maximum number of steps has been reached.

     End of molecular dynamics calculation

     diffusion coefficients :
     atom     1   D =       0.00000005 cm^2/s
     atom     2   D =       0.00000002 cm^2/s
     atom     3   D =       0.00000003 cm^2/s
     atom     4   D =       0.00000009 cm^2/s
     atom     5   D =       0.00000010 cm^2/s
     atom     6   D =       0.00000005 cm^2/s
     atom     7   D =       0.00000005 cm^2/s
     atom     8   D =       0.00000003 cm^2/s
     atom     9   D =       0.00002908 cm^2/s
     atom    10   D =       0.00000004 cm^2/s
     atom    11   D =       0.00000005 cm^2/s
     atom    12   D =       0.00000005 cm^2/s
     atom    13   D =       0.00000006 cm^2/s
     atom    14   D =       0.00000005 cm^2/s
     atom    15   D =       0.00000006 cm^2/s
     atom    16   D =       0.00000006 cm^2/s
     atom    17   D =       0.00000007 cm^2/s
     atom    18   D =       0.00000006 cm^2/s
     atom    19   D =       0.00000002 cm^2/s
     atom    20   D =       0.00000006 cm^2/s
     atom    21   D =       0.00000016 cm^2/s
     atom    22   D =       0.00000021 cm^2/s
     atom    23   D =       0.01781832 cm^2/s

     < D > =       0.00077603 cm^2/s

     Writing all to output data dir outdir/pwscf.save/

     General routines

     Parallel routines

   This run was terminated on:  23:10:43  14Jun2023

   JOB DONE.