     Program PWSCF v.7.2 starts on 16Jun2023 at 16:42:50

     Reading input from md_data/md_Hf5Nb2Ta10Zr5H_20steps_50eV_incident30_polar90.in
Warning: card &CELL ignored
Warning: card / ignored

     Current dimensions of program PWSCF are:
     Max number of different atomic species (ntypx) = 10
     Max number of k-points (npk) =  40000
     Max angular momentum in pseudopotentials (lmaxx) =  4

     File outdir/pwscf.md deleted, as requested

     gamma-point specific algorithms are used

     R & G space division:  proc/nbgrp/npool/nimage =      42
     Subspace diagonalization in iterative solution of the eigenvalue problem:
     one sub-group per band group will be used

     Using Slab Decomposition

     bravais-lattice index     =            0
     lattice parameter (alat)  =      17.6500  a.u.
     unit-cell volume          =    5552.8853 (a.u.)^3
     number of atoms/cell      =           23
     number of atomic types    =            5
     number of electrons       =       277.00
     number of Kohn-Sham states=          167
     kinetic-energy cutoff     =     120.0000  Ry
     charge density cutoff     =     480.0000  Ry
     scf convergence threshold =      1.0E-03
     mixing beta               =       0.7000
     number of iterations used =            8  TF        mixing
     energy convergence thresh.=      0.0E+00
     force convergence thresh. =      0.0E+00
     Exchange-correlation=  SLA  PW   PBX  PBC
                           (   1   4   3   4   0   0   0)
     nstep                     =           20

     celldm(1)=  17.650041  celldm(2)=   0.000000  celldm(3)=   0.000000
     celldm(4)=   0.000000  celldm(5)=   0.000000  celldm(6)=   0.000000

     crystal axes: (cart. coord. in units of alat)
               a(1) = (   1.000000   0.000000   0.000000 )
               a(2) = (   0.000000   0.929336   0.000000 )
               a(3) = (   0.000000   0.000000   1.086698 )

     reciprocal axes: (cart. coord. in units 2 pi/alat)
               b(1) = (  1.000000  0.000000  0.000000 )
               b(2) = (  0.000000  1.076037  0.000000 )
               b(3) = (  0.000000  0.000000  0.920219 )

     PseudoPot. # 1 for Hf read from file:
     q-e/pseudo/hf_pbe_v1.uspp.F.UPF
     MD5 check sum: 8ee9378dfe14276e333edf04c5e4aa26
     Pseudo is Ultrasoft + core correction, Zval = 12.0
     Generated by new atomic code, or converted to UPF format
     Using radial grid of  921 points,  8 beta functions with:
                l(1) =   0
                l(2) =   0
                l(3) =   0
                l(4) =   1
                l(5) =   1
                l(6) =   2
                l(7) =   2
                l(8) =   3
     Q(r) pseudized with  6 coefficients,  rinner =    1.200   1.200   1.200
                                                       1.200   1.200   1.200
                                                       1.200

     PseudoPot. # 2 for Nb read from file:
     q-e/pseudo/nb_pbe_v1.uspp.F.UPF
     MD5 check sum: 573aab8a2fa660278ed4a62cd769473f
     Pseudo is Ultrasoft + core correction, Zval = 13.0
     Generated by new atomic code, or converted to UPF format
     Using radial grid of  887 points,  6 beta functions with:
                l(1) =   0
                l(2) =   0
                l(3) =   1
                l(4) =   1
                l(5) =   2
                l(6) =   2
     Q(r) pseudized with  6 coefficients,  rinner =    1.000   1.000   1.000
                                                       1.000   1.000

     PseudoPot. # 3 for Ta read from file:
     q-e/pseudo/ta_pbe_v1.uspp.F.UPF
     MD5 check sum: f8bbe9446314a3b8ea5d9f3e3836c939
     Pseudo is Ultrasoft + core correction, Zval = 13.0
     Generated by new atomic code, or converted to UPF format
     Using radial grid of  921 points,  7 beta functions with:
                l(1) =   0
                l(2) =   0
                l(3) =   1
                l(4) =   1
                l(5) =   2
                l(6) =   2
                l(7) =   3
     Q(r) pseudized with  6 coefficients,  rinner =    1.300   1.300   1.300
                                                       1.300   1.300   1.300
                                                       1.300

     PseudoPot. # 4 for Zr read from file:
     q-e/pseudo/zr_pbe_v1.uspp.F.UPF
     MD5 check sum: 5db81b1e868ab7776c4564c113de050b
     Pseudo is Ultrasoft + core correction, Zval = 12.0
     Generated by new atomic code, or converted to UPF format
     Using radial grid of  887 points,  6 beta functions with:
                l(1) =   0
                l(2) =   0
                l(3) =   1
                l(4) =   1
                l(5) =   2
                l(6) =   2
     Q(r) pseudized with  6 coefficients,  rinner =    1.200   1.200   1.200
                                                       1.200   1.200

     PseudoPot. # 5 for H  read from file:
     q-e/pseudo/h_pbe_v1.4.uspp.F.UPF
     MD5 check sum: 761ae9a214b05c3daf00ab9f6b793d6f
     Pseudo is Ultrasoft, Zval =  1.0
     Generated by new atomic code, or converted to UPF format
     Using radial grid of  615 points,  2 beta functions with:
                l(1) =   0
                l(2) =   0
     Q(r) pseudized with  8 coefficients,  rinner =    0.700

     atomic species   valence    mass     pseudopotential
        Hf            12.00   178.49000     Hf( 1.00)
        Nb            13.00    92.90637     Nb( 1.00)
        Ta            13.00   180.94788     Ta( 1.00)
        Zr            12.00    91.22400     Zr( 1.00)
        H              1.00     2.01400     H ( 1.00)

     Starting magnetic structure
     atomic species   magnetization
        Hf           0.000
        Nb           0.000
        Ta           0.000
        Zr           0.000
        H            0.000

     No symmetry found

   Cartesian axes

     site n.     atom                  positions (alat units)
         1           Hf  tau(   1) = (   0.2858672   0.3026898   0.7070626  )
         2           Hf  tau(   2) = (   0.1341532   0.1377178   0.5415917  )
         3           Hf  tau(   3) = (   0.1344204   0.7911996   0.5447610  )
         4           Hf  tau(   4) = (   0.4375813   0.1377178   0.5415917  )
         5           Hf  tau(   5) = (   0.4373140   0.7911996   0.5447610  )
         6           Nb  tau(   6) = (   0.2858672   0.2994572   0.3764008  )
         7           Nb  tau(   7) = (   0.2858672   0.6291626   0.7103852  )
         8           Ta  tau(   8) = (   0.1294832   0.4647675   0.5429471  )
         9           Ta  tau(   9) = (   0.4422513   0.4647675   0.5429471  )
        10           Ta  tau(  10) = (   0.1399628   0.1406984   0.2204260  )
        11           Ta  tau(  11) = (   0.1394848   0.1400847   0.8666573  )
        12           Ta  tau(  12) = (   0.1396156   0.7897030   0.2190832  )
        13           Ta  tau(  13) = (   0.1400119   0.7885528   0.8657390  )
        14           Ta  tau(  14) = (   0.4317717   0.1406984   0.2204260  )
        15           Ta  tau(  15) = (   0.4322496   0.1400847   0.8666573  )
        16           Ta  tau(  16) = (   0.4321189   0.7897030   0.2190832  )
        17           Ta  tau(  17) = (   0.4317226   0.7885528   0.8657390  )
        18           Zr  tau(  18) = (   0.2858672   0.6280820   0.3776642  )
        19           Zr  tau(  19) = (   0.1331729   0.4627493   0.2141328  )
        20           Zr  tau(  20) = (   0.1328036   0.4661802   0.8725649  )
        21           Zr  tau(  21) = (   0.4385616   0.4627493   0.2141328  )
        22           Zr  tau(  22) = (   0.4389309   0.4661802   0.8725649  )
        23           H   tau(  23) = (   0.6276957   0.4646681   0.6501263  )

     number of k points=     1  Gaussian smearing, width (Ry)=  0.0220
                       cart. coord. in units 2pi/alat
        k(    1) = (   0.0000000   0.0000000   0.0000000), wk =   1.0000000

     Check: negative core charge=   -0.000002
     Generating pointlists ...
     new r_m :   0.1117 (alat units)  1.9717 (a.u.) for type    1
     new r_m :   0.1098 (alat units)  1.9374 (a.u.) for type    2
     new r_m :   0.0884 (alat units)  1.5594 (a.u.) for type    3
     new r_m :   0.1112 (alat units)  1.9625 (a.u.) for type    4
     new r_m :   0.0884 (alat units)  1.5594 (a.u.) for type    5

     Initial potential from superposition of free atoms

     starting charge     266.9726, renormalised to     277.0000

     negative rho (up, down):  9.217E-01 9.217E-01
     Starting wfcs are  287 randomized atomic wfcs

     Self-consistent Calculation

     iteration #  1     ecut=   120.00 Ry     beta= 0.70
     Davidson diagonalization with overlap
     ethr =  1.00E-02,  avg # of iterations =  2.0

     negative rho (up, down):  9.974E-01 9.971E-01

     total energy              =   -2930.56980442 Ry
     estimated scf accuracy    <     277.06023899 Ry

     total magnetization       =    -0.00 Bohr mag/cell
     absolute magnetization    =     0.09 Bohr mag/cell

[...]

     Magnetic moment per site  (integrated on atomic sphere of radius R)
     atom   1 (R=0.112)  charge=  9.4641  magn= -0.0001
     atom   2 (R=0.112)  charge=  9.0587  magn= -0.0003
     atom   3 (R=0.112)  charge=  9.0582  magn= -0.0002
     atom   4 (R=0.112)  charge=  9.0594  magn=  0.0002
     atom   5 (R=0.112)  charge=  9.0581  magn=  0.0001
     atom   6 (R=0.110)  charge= 10.3487  magn= -0.0000
     atom   7 (R=0.110)  charge= 10.3488  magn=  0.0000
     atom   8 (R=0.088)  charge=  8.1295  magn=  0.0002
     atom   9 (R=0.088)  charge=  8.1188  magn= -0.0002
     atom  10 (R=0.088)  charge=  8.1085  magn= -0.0000
     atom  11 (R=0.088)  charge=  8.1051  magn=  0.0001
     atom  12 (R=0.088)  charge=  8.1093  magn= -0.0001
     atom  13 (R=0.088)  charge=  8.1064  magn=  0.0002
     atom  14 (R=0.088)  charge=  8.1071  magn=  0.0001
     atom  15 (R=0.088)  charge=  8.1086  magn=  0.0005
     atom  16 (R=0.088)  charge=  8.1081  magn=  0.0012
     atom  17 (R=0.088)  charge=  8.1098  magn=  0.0009
     atom  18 (R=0.111)  charge=  9.4542  magn= -0.0002
     atom  19 (R=0.111)  charge=  8.9990  magn=  0.0012
     atom  20 (R=0.111)  charge=  8.9967  magn= -0.0015
     atom  21 (R=0.111)  charge=  8.9976  magn=  0.0022
     atom  22 (R=0.111)  charge=  8.9886  magn=  0.0000
     atom  23 (R=0.088)  charge=  0.9769  magn=  0.0000

     End of self-consistent calculation

 ------ SPIN UP ------------

          k = 0.0000 0.0000 0.0000 ( 61588 PWs)   bands (ev):

   -60.7870 -60.7854 -60.7412 -60.7393 -60.7093 -60.7053 -60.6648 -60.6598
   -60.4982 -60.4275 -54.4048 -54.3537 -54.2806 -54.2297 -52.7046 -46.2693
   -46.2613 -41.6721 -41.6291 -41.5677 -41.5286 -39.7980 -27.7904 -27.7847
   -27.7027 -27.6998 -27.6010 -27.5953 -27.4756 -27.4651 -27.3721 -27.3418
   -27.3036 -27.2745 -27.2680 -27.2456 -27.2336 -27.1775 -27.1710 -27.1396
   -27.0922 -27.0722 -27.0254 -26.9657 -26.9625 -26.9570 -26.9433 -26.9146
   -26.8969 -26.8884 -26.8632 -26.8621 -24.1879 -23.9781 -23.6730 -23.5903
   -23.3312 -23.1975 -23.1730 -23.0739 -22.9466 -22.8768 -22.8617 -22.6428
   -22.5102 -22.4594 -22.4052 -22.3602 -22.2905 -22.2423 -21.7662 -21.7084
[...]
     absolute magnetization    =     0.00 Bohr mag/cell

     convergence has been achieved in   5 iterations

     negative rho (up, down):  9.088E-01 9.088E-01

     Forces acting on atoms (cartesian axes, Ry/au):

     atom    1 type  1   force =    -0.01087362   -0.02329984    0.01131693
     atom    2 type  1   force =    -0.11781700   -0.01449434    0.00184645
     atom    3 type  1   force =    -0.11619274    0.01242682    0.00679690
     atom    4 type  1   force =     0.11556456   -0.01947542   -0.00185431
     atom    5 type  1   force =     0.11564553    0.01598501    0.00463920
     atom    6 type  2   force =    -0.01258937   -0.02397237   -0.00071054
     atom    7 type  2   force =    -0.01388530    0.01243850   -0.00641439
     atom    8 type  3   force =    -0.12639797    0.00273404    0.00286772
     atom    9 type  3   force =     0.04085812    0.00803424   -0.07297180
     atom   10 type  3   force =    -0.02190343   -0.02964917   -0.05986781
     atom   11 type  3   force =    -0.02101727   -0.03560242    0.05630608
     atom   12 type  3   force =    -0.01790828    0.03487617   -0.05462050
     atom   13 type  3   force =    -0.02135423    0.02817012    0.05878634
     atom   14 type  3   force =     0.02496248   -0.02691804   -0.05634095
     atom   15 type  3   force =     0.01769595   -0.04066759    0.05150377
     atom   16 type  3   force =     0.02108557    0.03097495   -0.05175673
     atom   17 type  3   force =     0.01771670    0.03565040    0.05629590
     atom   18 type  4   force =    -0.01291511    0.03181168   -0.01681952
     atom   19 type  4   force =    -0.12658550   -0.00463043   -0.11477960
     atom   20 type  4   force =    -0.13225721    0.00541257    0.10858804
     atom   21 type  4   force =     0.12466871   -0.00521380   -0.11978772
     atom   22 type  4   force =     0.15248976    0.00779309    0.09709250
     atom   23 type  5   force =     0.12100966   -0.00238417    0.09988404
     The non-local contrib.  to forces
     atom    1 type  1   force =    -0.00592789   -0.01252447    0.03523971
     atom    2 type  1   force =    -0.24550519   -0.16216637    0.01852865
     atom    3 type  1   force =    -0.23990808    0.15904611   -0.02494179
     atom    4 type  1   force =     0.26227305   -0.16022874    0.03199041
     atom    5 type  1   force =     0.25076748    0.15553866   -0.01434430
     atom    6 type  2   force =     0.00596303   -0.05545362   -0.06284570
     atom    7 type  2   force =    -0.01630242    0.05637113    0.05584328
     atom    8 type  3   force =    -0.25829326    0.00132926   -0.00033010
     atom    9 type  3   force =     0.04991228    0.00460260   -0.10706524
     atom   10 type  3   force =    -0.21372485    0.00619683   -0.20725285
     atom   11 type  3   force =    -0.21405340    0.01088401    0.19365737
     atom   12 type  3   force =    -0.20413625   -0.02003292   -0.18024488
     atom   13 type  3   force =    -0.20375048   -0.00941753    0.20609377
     atom   14 type  3   force =     0.20666605    0.00465632   -0.21980998
     atom   15 type  3   force =     0.22571726    0.00331587    0.18080472
     atom   16 type  3   force =     0.19610569   -0.02060975   -0.19037011
     atom   17 type  3   force =     0.21605520   -0.00037602    0.19348940
     atom   18 type  4   force =     0.00547481    0.06033852   -0.06190187
     atom   19 type  4   force =     0.06151732    0.00933689    0.07306972
     atom   20 type  4   force =     0.05097425   -0.01352164   -0.06168446
     atom   21 type  4   force =    -0.05474846    0.00987947    0.07766821
     atom   22 type  4   force =    -0.05694899   -0.01034682   -0.08658658
     atom   23 type  5   force =    -0.06954663    0.00036425   -0.03697689
     The ionic contribution  to forces
     atom    1 type  1   force =    -0.37714299   -4.80045788   14.17391669
     atom    2 type  1   force =   -39.70289964   -6.19445578    0.74779275
     atom    3 type  1   force =   -39.67619864    6.18250122   -0.74463659
     atom    4 type  1   force =    39.48707963   -6.42503781    0.68320590
     atom    5 type  1   force =    39.46143438    6.41148361   -0.80489647
     atom    6 type  2   force =    -0.29965126   -3.78242409  -14.19135552
     atom    7 type  2   force =    -0.39806058    3.81000363   14.11572208
     atom    8 type  3   force =   -52.32884452    0.07099387   -0.10637422
     atom    9 type  3   force =    49.66213243    0.10189648   -1.39790805
     atom   10 type  3   force =   -36.05028735   -2.10797348  -23.06328275
     atom   11 type  3   force =   -35.13014906   -0.87530038   22.08932356
     atom   12 type  3   force =   -35.23717804    0.81136804  -22.11793923
     atom   13 type  3   force =   -36.02825488    2.20922968   23.06751892
     atom   14 type  3   force =    35.96675252   -2.15464093  -23.12073301
     atom   15 type  3   force =    34.96579874   -0.99663079   22.19996539
     atom   16 type  3   force =    35.15479303    0.85709903  -22.17430735
     atom   17 type  3   force =    35.86345833    2.32890269   23.17613259
     atom   18 type  4   force =    -0.28198153    4.57455033  -14.13445820
     atom   19 type  4   force =   -35.89261074    0.95432577  -25.51429782
     atom   20 type  4   force =   -35.87621159   -0.95104894   25.52278447
     atom   21 type  4   force =    35.76785897    0.95328000  -25.70531253
     atom   22 type  4   force =    35.39309554   -0.94454507   26.05317969
     atom   23 type  5   force =     5.55706725   -0.03311919    1.24595970
     The local contribution  to forces
     atom    1 type  1   force =     0.37414594    4.78603526  -14.19062909
     atom    2 type  1   force =    39.84241149    6.34373153   -0.75403478
     atom    3 type  1   force =    39.81179450   -6.33229624    0.78954649
     atom    4 type  1   force =   -39.64238572    6.56920579   -0.70964205
     atom    5 type  1   force =   -39.60576715   -6.55442753    0.83307711
     atom    6 type  2   force =     0.28579400    3.81105980   14.25722340
     atom    7 type  2   force =     0.40362702   -3.84848808  -14.16829762
     atom    8 type  3   force =    52.48849689   -0.06894534    0.12003885
     atom    9 type  3   force =   -49.66423169   -0.09933087    1.46032915
     atom   10 type  3   force =    36.26600676    2.06600335   23.22657610
     atom   11 type  3   force =    35.34644466    0.81725416  -22.24887491
     atom   12 type  3   force =    35.44699244   -0.74923515   22.25922212
     atom   13 type  3   force =    36.23187274   -2.16130645  -23.23810811
     atom   14 type  3   force =   -36.16722655    2.11679860   23.30091714
     atom   15 type  3   force =   -35.19195277    0.94170223  -22.34773100
     atom   16 type  3   force =   -35.34792178   -0.79764734   22.32956806
     atom   17 type  3   force =   -36.07844633   -2.28188986  -23.33302581
     atom   18 type  4   force =     0.26765431   -4.60049258   14.18345739
     atom   19 type  4   force =    35.71680399   -0.96892596   25.33532658
     atom   20 type  4   force =    35.69879584    0.97011214  -25.36509806
     atom   21 type  4   force =   -35.59508270   -0.96898876   25.51706788
     atom   22 type  4   force =   -35.18201940    0.96172609  -25.88597369
     atom   23 type  5   force =    -5.36477273    0.03036474   -1.10719265
     The core correction contribution to forces
     atom    1 type  1   force =     0.00246035    0.00082398   -0.00013322
     atom    2 type  1   force =    -0.01250600   -0.00191435   -0.00002658
     atom    3 type  1   force =    -0.01235891    0.00285535   -0.00199442
     atom    4 type  1   force =     0.01365330   -0.00307612    0.00286772
     atom    5 type  1   force =     0.01373692    0.00298824    0.00083189
     atom    6 type  2   force =    -0.00036143    0.00245702    0.00258948
     atom    7 type  2   force =     0.00059125   -0.00275926   -0.00197330
     atom    8 type  3   force =    -0.03138390    0.00019470    0.00031686
     atom    9 type  3   force =     0.00866578    0.00118457   -0.01404377
     atom   10 type  3   force =    -0.02154772    0.01001252   -0.01591225
     atom   11 type  3   force =    -0.02433214    0.00947381    0.01753767
     atom   12 type  3   force =    -0.02170170   -0.00998398   -0.01529071
     atom   13 type  3   force =    -0.02300180   -0.00893011    0.01741795
     atom   14 type  3   force =     0.02257967    0.00987863   -0.01659487
     atom   15 type  3   force =     0.02479051    0.01036062    0.01389674
     atom   16 type  3   force =     0.02227630   -0.01043693   -0.01610272
     atom   17 type  3   force =     0.02268953   -0.00892422    0.01463603
     atom   18 type  4   force =    -0.00027257   -0.00323169    0.00316216
     atom   19 type  4   force =    -0.00973106    0.00003304   -0.00962379
     atom   20 type  4   force =    -0.00931139    0.00036006    0.00891574
     atom   21 type  4   force =     0.00942280   -0.00000693   -0.01013943
     atom   22 type  4   force =     0.01018672    0.00017810    0.00987857
     atom   23 type  5   force =     0.00000000    0.00000000    0.00000000
     The Hubbard contrib.    to forces
     atom    1 type  1   force =     0.00000000    0.00000000    0.00000000
     atom    2 type  1   force =     0.00000000    0.00000000    0.00000000
     atom    3 type  1   force =     0.00000000    0.00000000    0.00000000
     atom    4 type  1   force =     0.00000000    0.00000000    0.00000000
     atom    5 type  1   force =     0.00000000    0.00000000    0.00000000
     atom    6 type  2   force =     0.00000000    0.00000000    0.00000000
     atom    7 type  2   force =     0.00000000    0.00000000    0.00000000
     atom    8 type  3   force =     0.00000000    0.00000000    0.00000000
     atom    9 type  3   force =     0.00000000    0.00000000    0.00000000
     atom   10 type  3   force =     0.00000000    0.00000000    0.00000000
     atom   11 type  3   force =     0.00000000    0.00000000    0.00000000
     atom   12 type  3   force =     0.00000000    0.00000000    0.00000000
     atom   13 type  3   force =     0.00000000    0.00000000    0.00000000
     atom   14 type  3   force =     0.00000000    0.00000000    0.00000000
     atom   15 type  3   force =     0.00000000    0.00000000    0.00000000
     atom   16 type  3   force =     0.00000000    0.00000000    0.00000000
     atom   17 type  3   force =     0.00000000    0.00000000    0.00000000
     atom   18 type  4   force =     0.00000000    0.00000000    0.00000000
     atom   19 type  4   force =     0.00000000    0.00000000    0.00000000
     atom   20 type  4   force =     0.00000000    0.00000000    0.00000000
     atom   21 type  4   force =     0.00000000    0.00000000    0.00000000
     atom   22 type  4   force =     0.00000000    0.00000000    0.00000000
     atom   23 type  5   force =     0.00000000    0.00000000    0.00000000
     The SCF correction term to forces
     atom    1 type  1   force =    -0.00385528    0.00281323   -0.00639619
     atom    2 type  1   force =     0.00123608    0.00030059   -0.00973260
     atom    3 type  1   force =     0.00103212    0.00031033   -0.01049581
     atom    4 type  1   force =    -0.00450196   -0.00034859   -0.00959531
     atom    5 type  1   force =    -0.00397236    0.00039198   -0.00934803
     atom    6 type  2   force =    -0.00377998    0.00037848   -0.00564122
     atom    7 type  2   force =    -0.00318684   -0.00269897   -0.00702785
     atom    8 type  3   force =     0.00418056   -0.00084851   -0.01010269
     atom    9 type  3   force =    -0.01506694   -0.00032859   -0.01360291
     atom   10 type  3   force =    -0.00179653   -0.00389846    0.00068493
     atom   11 type  3   force =     0.00162642    0.00207592    0.00534338
     atom   12 type  3   force =    -0.00133100    0.00275012    0.00031319
     atom   13 type  3   force =     0.00233394   -0.00141553    0.00654479
     atom   14 type  3   force =    -0.00325547   -0.00362072    0.00056076
     atom   15 type  3   force =    -0.00610407    0.00057443    0.00524890
     atom   16 type  3   force =    -0.00361395    0.00255989    0.00013638
     atom   17 type  3   force =    -0.00548629   -0.00207225    0.00574467
     atom   18 type  4   force =    -0.00323639    0.00063704   -0.00639801
     atom   19 type  4   force =    -0.00201128    0.00058978    0.00142669
     atom   20 type  4   force =     0.00404943   -0.00049910    0.00435132
     atom   21 type  4   force =    -0.00222816    0.00061236    0.00160913
     atom   22 type  4   force =    -0.01127038    0.00077074    0.00727549
     atom   23 type  5   force =    -0.00118449   -0.00000402   -0.00122514

     Total force =     0.514250     Total SCF correction =     0.041330

     Computing stress (Cartesian axis) and pressure

     negative rho (up, down):  9.088E-01 9.088E-01
          total   stress  (Ry/bohr**3)                   (kbar)     P=       88.08
   0.00073507   0.00000096   0.00004689          108.13        0.14        6.90
   0.00000096   0.00067012  -0.00001266            0.14       98.58       -1.86
   0.00004689  -0.00001266   0.00039109            6.90       -1.86       57.53

     Entering Dynamics:    iteration =    20
                           time      =   0.0041 pico-seconds

ATOMIC_POSITIONS (angstrom)
Hf            2.6715024447        2.8269043698        6.6049545689
Hf            1.2531707787        1.2861159976        5.0593403327
Hf            1.2556771443        7.3899539172        5.0890058707
Hf            4.0898826314        1.2860823350        5.0593071504
Hf            4.0873912372        7.3899655003        5.0889794084
Nb            2.6714888433        2.7965511688        3.5166006515
Nb            2.6714455818        5.8765638045        6.6357090762
Ta            1.2094700381        4.3409601728        5.0721003475
Ta            4.1083429767        4.3411468301        5.0563699450
Ta            1.3085353844        1.3137559042        2.0590172975
Ta            1.3040798616        1.3079679450        8.0961147352
Ta            1.3053305852        7.3762443731        2.0465243510
Ta            1.3090074509        7.3654258174        8.0875641796
Ta            4.0345551512        1.3138296108        2.0590399018
Ta            4.0389655111        1.3079653037        8.0960660126
Ta            4.0377647825        7.3761698996        2.0465433335
Ta            4.0340347623        7.3654515696        8.0875441401
Zr            2.6714969470        5.8668001654        3.5280921824
Zr            1.2424913696        4.3219730650        1.9983060163
Zr            1.2389369226        4.3542448320        8.1531357816
Zr            4.1005933009        4.3219570168        1.9981719021
Zr            4.1043774212        4.3542835199        8.1531048694
H             5.5845765736        4.3283411046        6.0010209314

     kinetic energy (Ekin) =           4.01842064 Ry
     temperature           =       19226.01329397 K
     Ekin + Etot (const)   =       -2939.02139513 Ry
     Ions kinetic stress =           70.97 (kbar)
                                    147.91          -1.68          97.85
                                     -1.68           0.03          -1.11
                                     97.85          -1.11          64.97

     Linear momentum :   -0.0000000000   -0.0000000000    0.0000000000

     The maximum number of steps has been reached.

     End of molecular dynamics calculation

     diffusion coefficients :
     atom     1   D =       0.00000001 cm^2/s
     atom     2   D =       0.00000000 cm^2/s
     atom     3   D =       0.00000000 cm^2/s
     atom     4   D =       0.00000004 cm^2/s
     atom     5   D =       0.00000004 cm^2/s
     atom     6   D =       0.00000001 cm^2/s
     atom     7   D =       0.00000001 cm^2/s
     atom     8   D =       0.00000000 cm^2/s
     atom     9   D =       0.00000293 cm^2/s
     atom    10   D =       0.00000001 cm^2/s
     atom    11   D =       0.00000002 cm^2/s
     atom    12   D =       0.00000001 cm^2/s
     atom    13   D =       0.00000002 cm^2/s
     atom    14   D =       0.00000001 cm^2/s
     atom    15   D =       0.00000002 cm^2/s
     atom    16   D =       0.00000001 cm^2/s
     atom    17   D =       0.00000002 cm^2/s
     atom    18   D =       0.00000001 cm^2/s
     atom    19   D =       0.00000002 cm^2/s
     atom    20   D =       0.00000006 cm^2/s
     atom    21   D =       0.00000009 cm^2/s
     atom    22   D =       0.00000014 cm^2/s
     atom    23   D =       0.00033852 cm^2/s

     < D > =       0.00001487 cm^2/s

     Writing all to output data dir outdir/pwscf.save/

     General routines

     Parallel routines

   This run was terminated on:  17:43: 7  16Jun2023

   JOB DONE.