     Program PWSCF v.7.2 starts on 13Jun2023 at  6: 8:29

     Reading input from md_data/md_Hf5Nb2Ta10Zr5H_20steps_100eV_incident0_polar90.in
Warning: card &CELL ignored
Warning: card / ignored

     Current dimensions of program PWSCF are:
     Max number of different atomic species (ntypx) = 10
     Max number of k-points (npk) =  40000
     Max angular momentum in pseudopotentials (lmaxx) =  4

     File outdir/pwscf.md deleted, as requested

     gamma-point specific algorithms are used

     R & G space division:  proc/nbgrp/npool/nimage =      42
     Subspace diagonalization in iterative solution of the eigenvalue problem:
     one sub-group per band group will be used

     Using Slab Decomposition

     bravais-lattice index     =            0
     lattice parameter (alat)  =      17.6500  a.u.
     unit-cell volume          =    5552.8853 (a.u.)^3
     number of atoms/cell      =           23
     number of atomic types    =            5
     number of electrons       =       277.00
     number of Kohn-Sham states=          167
     kinetic-energy cutoff     =     120.0000  Ry
     charge density cutoff     =     480.0000  Ry
     scf convergence threshold =      1.0E-03
     mixing beta               =       0.7000
     number of iterations used =            8  TF        mixing
     energy convergence thresh.=      0.0E+00
     force convergence thresh. =      0.0E+00
     Exchange-correlation=  SLA  PW   PBX  PBC
                           (   1   4   3   4   0   0   0)
     nstep                     =           20

     celldm(1)=  17.650041  celldm(2)=   0.000000  celldm(3)=   0.000000
     celldm(4)=   0.000000  celldm(5)=   0.000000  celldm(6)=   0.000000

     crystal axes: (cart. coord. in units of alat)
               a(1) = (   1.000000   0.000000   0.000000 )
               a(2) = (   0.000000   0.929336   0.000000 )
               a(3) = (   0.000000   0.000000   1.086698 )

     reciprocal axes: (cart. coord. in units 2 pi/alat)
               b(1) = (  1.000000  0.000000  0.000000 )
               b(2) = (  0.000000  1.076037  0.000000 )
               b(3) = (  0.000000  0.000000  0.920219 )

     PseudoPot. # 1 for Hf read from file:
     q-e/pseudo/hf_pbe_v1.uspp.F.UPF
     MD5 check sum: 8ee9378dfe14276e333edf04c5e4aa26
     Pseudo is Ultrasoft + core correction, Zval = 12.0
     Generated by new atomic code, or converted to UPF format
     Using radial grid of  921 points,  8 beta functions with:
                l(1) =   0
                l(2) =   0
                l(3) =   0
                l(4) =   1
                l(5) =   1
                l(6) =   2
                l(7) =   2
                l(8) =   3
     Q(r) pseudized with  6 coefficients,  rinner =    1.200   1.200   1.200
                                                       1.200   1.200   1.200
                                                       1.200

     PseudoPot. # 2 for Nb read from file:
     q-e/pseudo/nb_pbe_v1.uspp.F.UPF
     MD5 check sum: 573aab8a2fa660278ed4a62cd769473f
     Pseudo is Ultrasoft + core correction, Zval = 13.0
     Generated by new atomic code, or converted to UPF format
     Using radial grid of  887 points,  6 beta functions with:
                l(1) =   0
                l(2) =   0
                l(3) =   1
                l(4) =   1
                l(5) =   2
                l(6) =   2
     Q(r) pseudized with  6 coefficients,  rinner =    1.000   1.000   1.000
                                                       1.000   1.000

     PseudoPot. # 3 for Ta read from file:
     q-e/pseudo/ta_pbe_v1.uspp.F.UPF
     MD5 check sum: f8bbe9446314a3b8ea5d9f3e3836c939
     Pseudo is Ultrasoft + core correction, Zval = 13.0
     Generated by new atomic code, or converted to UPF format
     Using radial grid of  921 points,  7 beta functions with:
                l(1) =   0
                l(2) =   0
                l(3) =   1
                l(4) =   1
                l(5) =   2
                l(6) =   2
                l(7) =   3
     Q(r) pseudized with  6 coefficients,  rinner =    1.300   1.300   1.300
                                                       1.300   1.300   1.300
                                                       1.300

     PseudoPot. # 4 for Zr read from file:
     q-e/pseudo/zr_pbe_v1.uspp.F.UPF
     MD5 check sum: 5db81b1e868ab7776c4564c113de050b
     Pseudo is Ultrasoft + core correction, Zval = 12.0
     Generated by new atomic code, or converted to UPF format
     Using radial grid of  887 points,  6 beta functions with:
                l(1) =   0
                l(2) =   0
                l(3) =   1
                l(4) =   1
                l(5) =   2
                l(6) =   2
     Q(r) pseudized with  6 coefficients,  rinner =    1.200   1.200   1.200
                                                       1.200   1.200

     PseudoPot. # 5 for H  read from file:
     q-e/pseudo/h_pbe_v1.4.uspp.F.UPF
     MD5 check sum: 761ae9a214b05c3daf00ab9f6b793d6f
     Pseudo is Ultrasoft, Zval =  1.0
     Generated by new atomic code, or converted to UPF format
     Using radial grid of  615 points,  2 beta functions with:
                l(1) =   0
                l(2) =   0
     Q(r) pseudized with  8 coefficients,  rinner =    0.700

     atomic species   valence    mass     pseudopotential
        Hf            12.00   178.49000     Hf( 1.00)
        Nb            13.00    92.90637     Nb( 1.00)
        Ta            13.00   180.94788     Ta( 1.00)
        Zr            12.00    91.22400     Zr( 1.00)
        H              1.00     2.01400     H ( 1.00)

     Starting magnetic structure
     atomic species   magnetization
        Hf           0.000
        Nb           0.000
        Ta           0.000
        Zr           0.000
        H            0.000

     No symmetry found

   Cartesian axes

     site n.     atom                  positions (alat units)
         1           Hf  tau(   1) = (   0.2858672   0.3026898   0.7070626  )
         2           Hf  tau(   2) = (   0.1341532   0.1377178   0.5415917  )
         3           Hf  tau(   3) = (   0.1344204   0.7911996   0.5447610  )
         4           Hf  tau(   4) = (   0.4375813   0.1377178   0.5415917  )
         5           Hf  tau(   5) = (   0.4373140   0.7911996   0.5447610  )
         6           Nb  tau(   6) = (   0.2858672   0.2994572   0.3764008  )
         7           Nb  tau(   7) = (   0.2858672   0.6291626   0.7103852  )
         8           Ta  tau(   8) = (   0.1294832   0.4647675   0.5429471  )
         9           Ta  tau(   9) = (   0.4422513   0.4647675   0.5429471  )
        10           Ta  tau(  10) = (   0.1399628   0.1406984   0.2204260  )
        11           Ta  tau(  11) = (   0.1394848   0.1400847   0.8666573  )
        12           Ta  tau(  12) = (   0.1396156   0.7897030   0.2190832  )
        13           Ta  tau(  13) = (   0.1400119   0.7885528   0.8657390  )
        14           Ta  tau(  14) = (   0.4317717   0.1406984   0.2204260  )
        15           Ta  tau(  15) = (   0.4322496   0.1400847   0.8666573  )
        16           Ta  tau(  16) = (   0.4321189   0.7897030   0.2190832  )
        17           Ta  tau(  17) = (   0.4317226   0.7885528   0.8657390  )
        18           Zr  tau(  18) = (   0.2858672   0.6280820   0.3776642  )
        19           Zr  tau(  19) = (   0.1331729   0.4627493   0.2141328  )
        20           Zr  tau(  20) = (   0.1328036   0.4661802   0.8725649  )
        21           Zr  tau(  21) = (   0.4385616   0.4627493   0.2141328  )
        22           Zr  tau(  22) = (   0.4389309   0.4661802   0.8725649  )
        23           H   tau(  23) = (   0.6563841   0.4646681   0.5430600  )

     number of k points=     1  Gaussian smearing, width (Ry)=  0.0220
                       cart. coord. in units 2pi/alat
        k(    1) = (   0.0000000   0.0000000   0.0000000), wk =   1.0000000

     Check: negative core charge=   -0.000002
     Generating pointlists ...
     new r_m :   0.1117 (alat units)  1.9717 (a.u.) for type    1
     new r_m :   0.1098 (alat units)  1.9374 (a.u.) for type    2
     new r_m :   0.0883 (alat units)  1.5590 (a.u.) for type    3
     new r_m :   0.1112 (alat units)  1.9625 (a.u.) for type    4
     new r_m :   0.0883 (alat units)  1.5590 (a.u.) for type    5

     Initial potential from superposition of free atoms

     starting charge     266.9726, renormalised to     277.0000

     negative rho (up, down):  9.217E-01 9.217E-01
     Starting wfcs are  287 randomized atomic wfcs

     Self-consistent Calculation

     iteration #  1     ecut=   120.00 Ry     beta= 0.70
     Davidson diagonalization with overlap
     ethr =  1.00E-02,  avg # of iterations =  2.0

     negative rho (up, down):  9.979E-01 9.976E-01

     total energy              =   -2930.51843033 Ry
     estimated scf accuracy    <     277.34127673 Ry

     total magnetization       =    -0.00 Bohr mag/cell
     absolute magnetization    =     0.09 Bohr mag/cell

[...]

     Magnetic moment per site  (integrated on atomic sphere of radius R)
     atom   1 (R=0.112)  charge=  9.4616  magn=  0.0001
     atom   2 (R=0.112)  charge=  9.0591  magn=  0.0002
     atom   3 (R=0.112)  charge=  9.0583  magn= -0.0001
     atom   4 (R=0.112)  charge=  9.0550  magn= -0.0001
     atom   5 (R=0.112)  charge=  9.0545  magn= -0.0003
     atom   6 (R=0.110)  charge= 10.3472  magn= -0.0006
     atom   7 (R=0.110)  charge= 10.3481  magn=  0.0001
     atom   8 (R=0.088)  charge=  8.1256  magn= -0.0002
     atom   9 (R=0.088)  charge=  8.1090  magn= -0.0006
     atom  10 (R=0.088)  charge=  8.1059  magn=  0.0001
     atom  11 (R=0.088)  charge=  8.1031  magn= -0.0001
     atom  12 (R=0.088)  charge=  8.1072  magn=  0.0006
     atom  13 (R=0.088)  charge=  8.1053  magn= -0.0006
     atom  14 (R=0.088)  charge=  8.1065  magn=  0.0000
     atom  15 (R=0.088)  charge=  8.1035  magn= -0.0004
     atom  16 (R=0.088)  charge=  8.1084  magn=  0.0004
     atom  17 (R=0.088)  charge=  8.1061  magn= -0.0013
     atom  18 (R=0.111)  charge=  9.4528  magn= -0.0002
     atom  19 (R=0.111)  charge=  9.0050  magn=  0.0036
     atom  20 (R=0.111)  charge=  8.9983  magn= -0.0010
     atom  21 (R=0.111)  charge=  9.0030  magn=  0.0043
     atom  22 (R=0.111)  charge=  8.9956  magn= -0.0013
     atom  23 (R=0.088)  charge=  0.9675  magn=  0.0000

     End of self-consistent calculation

 ------ SPIN UP ------------

          k = 0.0000 0.0000 0.0000 ( 61588 PWs)   bands (ev):

   -60.8075 -60.8018 -60.7626 -60.7567 -60.7307 -60.7190 -60.6868 -60.6752
   -60.5273 -60.3901 -54.4370 -54.3763 -54.3131 -54.2527 -52.7150 -46.2842
   -46.2765 -41.6929 -41.6641 -41.5843 -41.5713 -39.8135 -27.8096 -27.8015
   -27.7261 -27.7132 -27.6192 -27.6145 -27.4935 -27.4855 -27.3778 -27.3589
   -27.3062 -27.2939 -27.2852 -27.2611 -27.2496 -27.1967 -27.1864 -27.1561
   -27.1094 -27.0839 -27.0107 -26.9864 -26.9787 -26.9722 -26.9629 -26.9116
   -26.9095 -26.8867 -26.8784 -26.8598 -24.2160 -24.0044 -23.6973 -23.6153
   -23.3570 -23.2195 -23.1931 -23.0942 -22.9731 -22.8997 -22.8869 -22.6675
   -22.5227 -22.4749 -22.4255 -22.3761 -22.3158 -22.2614 -21.7822 -21.7160
[...]

     convergence has been achieved in   4 iterations

     negative rho (up, down):  9.089E-01 9.089E-01

     Forces acting on atoms (cartesian axes, Ry/au):

     atom    1 type  1   force =    -0.01245192   -0.02879366    0.01392265
     atom    2 type  1   force =    -0.11707731   -0.01610565   -0.00924023
     atom    3 type  1   force =    -0.11595619    0.01322793   -0.00444078
     atom    4 type  1   force =     0.11957721   -0.01639512   -0.01010531
     atom    5 type  1   force =     0.11877721    0.01389844   -0.00339513
     atom    6 type  2   force =    -0.01183137   -0.01786576    0.00620513
     atom    7 type  2   force =    -0.01196843    0.01551303   -0.00273855
     atom    8 type  3   force =    -0.12898395    0.00345929   -0.00476290
     atom    9 type  3   force =     0.20915920    0.00365458   -0.00481964
     atom   10 type  3   force =    -0.02116544   -0.03201723   -0.05745559
     atom   11 type  3   force =    -0.02024339   -0.03482576    0.05929428
     atom   12 type  3   force =    -0.01723585    0.03711579   -0.05215638
     atom   13 type  3   force =    -0.01861844    0.02820769    0.06313837
     atom   14 type  3   force =     0.02323679   -0.03375948   -0.05651569
     atom   15 type  3   force =     0.02094566   -0.03465171    0.05786841
     atom   16 type  3   force =     0.01792780    0.03757212   -0.05043724
     atom   17 type  3   force =     0.02047596    0.02945028    0.06213459
     atom   18 type  4   force =    -0.01239865    0.02948085   -0.01993290
     atom   19 type  4   force =    -0.12800180   -0.00412216   -0.11211185
     atom   20 type  4   force =    -0.13183568    0.00563040    0.11820136
     atom   21 type  4   force =     0.13272380   -0.00535737   -0.11455524
     atom   22 type  4   force =     0.13692993    0.00675037    0.11976066
     atom   23 type  5   force =    -0.05198515   -0.00006687    0.00214200
     The non-local contrib.  to forces
     atom    1 type  1   force =    -0.00527351   -0.01795986    0.02736453
     atom    2 type  1   force =    -0.24972090   -0.16270829    0.01343261
     atom    3 type  1   force =    -0.24284949    0.15802866   -0.03048706
     atom    4 type  1   force =     0.26513234   -0.15802505    0.01301042
     atom    5 type  1   force =     0.25855115    0.15349906   -0.02987174
     atom    6 type  2   force =    -0.00583686   -0.04976552   -0.06329887
     atom    7 type  2   force =    -0.00636224    0.05994173    0.05558676
     atom    8 type  3   force =    -0.30462351    0.00055406   -0.00648939
     atom    9 type  3   force =     0.14659979    0.00123875   -0.00721120
     atom   10 type  3   force =    -0.20893380    0.00286890   -0.20651397
     atom   11 type  3   force =    -0.21803626    0.00631918    0.19568473
     atom   12 type  3   force =    -0.19733175   -0.01636556   -0.17987260
     atom   13 type  3   force =    -0.20805366   -0.00539665    0.20835841
     atom   14 type  3   force =     0.20883215    0.00166212   -0.20785473
     atom   15 type  3   force =     0.21802361    0.00822605    0.19627155
     atom   16 type  3   force =     0.19592896   -0.01747451   -0.18105984
     atom   17 type  3   force =     0.20761780   -0.00452467    0.20964008
     atom   18 type  4   force =    -0.00790645    0.05397902   -0.06389535
     atom   19 type  4   force =     0.06043516    0.01045836    0.06509458
     atom   20 type  4   force =     0.05575798   -0.01301804   -0.05888360
     atom   21 type  4   force =    -0.06100459    0.00972160    0.08022272
     atom   22 type  4   force =    -0.05673246   -0.01228595   -0.07442756
     atom   23 type  5   force =    -0.01802302    0.00004674   -0.00005095
     The ionic contribution  to forces
     atom    1 type  1   force =    -0.13147225   -4.83895478   14.30233467
     atom    2 type  1   force =   -39.60582250   -6.23881689    0.77893664
     atom    3 type  1   force =   -39.58019394    6.22651595   -0.71257812
     atom    4 type  1   force =    39.55017914   -6.29352400    0.77812551
     atom    5 type  1   force =    39.52631914    6.28012304   -0.71282793
     atom    6 type  2   force =    -0.13530282   -3.80942350  -14.21247753
     atom    7 type  2   force =    -0.13531003    3.84333265   14.24655267
     atom    8 type  3   force =   -52.21986187    0.07202222   -0.06678722
     atom    9 type  3   force =    50.89454610    0.07968547   -0.07574888
     atom   10 type  3   force =   -35.99015663   -2.12409707  -23.10016404
     atom   11 type  3   force =   -35.06533629   -0.87754030   22.10495934
     atom   12 type  3   force =   -35.17867883    0.82837772  -22.15559646
     atom   13 type  3   force =   -35.96385075    2.21175342   23.08350624
     atom   14 type  3   force =    35.95734865   -2.14167841  -23.12289911
     atom   15 type  3   force =    35.03234547   -0.89551529   22.12797821
     atom   16 type  3   force =    35.14684506    0.84498155  -22.17742668
     atom   17 type  3   force =    35.93078375    2.22942677   23.10623954
     atom   18 type  4   force =    -0.12910101    4.59889160  -14.15443565
     atom   19 type  4   force =   -35.79912164    0.95347533  -25.58631642
     atom   20 type  4   force =   -35.78040528   -0.95084143   25.56366161
     atom   21 type  4   force =    35.75057770    0.95381143  -25.64647422
     atom   22 type  4   force =    35.72959988   -0.95024242   25.62483249
     atom   23 type  5   force =     2.19606894   -0.00176306    0.00660534
     The local contribution  to forces
     atom    1 type  1   force =     0.11819141    4.82716095  -14.33001281
     atom    2 type  1   force =    39.74671622    6.38752271   -0.82920364
     atom    3 type  1   force =    39.71610547   -6.37485179    0.71414366
     atom    4 type  1   force =   -39.70761182    6.43401282   -0.82868590
     atom    5 type  1   force =   -39.67861270   -6.42002766    0.71509239
     atom    6 type  2   force =     0.12179118    3.83135086   14.24554773
     atom    7 type  2   force =     0.12350009   -3.88471315  -14.32154087
     atom    8 type  3   force =    52.41735476   -0.06869307    0.04198806
     atom    9 type  3   force =   -50.86224838   -0.07664940    0.05322487
     atom   10 type  3   force =    36.19960870    2.07284423   23.26575830
     atom   11 type  3   force =    35.28137577    0.83302380  -22.25120364
     atom   12 type  3   force =    35.38047769   -0.75854039   22.29928451
     atom   13 type  3   force =    36.17069447   -2.17653703  -23.23973951
     atom   14 type  3   force =   -36.16869035    2.08612303   23.28826998
     atom   15 type  3   force =   -35.25100482    0.84702278  -22.27385974
     atom   16 type  3   force =   -35.34995407   -0.76975671   22.32120015
     atom   17 type  3   force =   -36.13906896   -2.19181079  -23.26241047
     atom   18 type  4   force =     0.11765971   -4.61341719   14.16483539
     atom   19 type  4   force =    35.61756310   -0.96814339   25.41769738
     atom   20 type  4   force =    35.59811328    0.97003510  -25.38941106
     atom   21 type  4   force =   -35.56932261   -0.96872271   25.45630478
     atom   22 type  4   force =   -35.54553847    0.96974296  -25.43043759
     atom   23 type  5   force =    -2.22675283    0.00166834   -0.00850511
     The core correction contribution to forces
     atom    1 type  1   force =     0.00132733    0.00145974   -0.00080793
     atom    2 type  1   force =    -0.01274092   -0.00189607    0.00071121
     atom    3 type  1   force =    -0.01278834    0.00274086   -0.00140350
     atom    4 type  1   force =     0.01297362   -0.00303324    0.00084272
     atom    5 type  1   force =     0.01300847    0.00385990   -0.00155815
     atom    6 type  2   force =     0.00005524    0.00216138    0.00241125
     atom    7 type  2   force =     0.00006858   -0.00270032   -0.00197286
     atom    8 type  3   force =    -0.03502994    0.00020779   -0.00030936
     atom    9 type  3   force =     0.01693885    0.00018275   -0.00029824
     atom   10 type  3   force =    -0.02231068    0.00923534   -0.01638647
     atom   11 type  3   force =    -0.02413402    0.00934835    0.01697131
     atom   12 type  3   force =    -0.02234899   -0.00919576   -0.01597436
     atom   13 type  3   force =    -0.02240015   -0.00889012    0.01709273
     atom   14 type  3   force =     0.02274244    0.01064809   -0.01472321
     atom   15 type  3   force =     0.02423651    0.01137292    0.01515197
     atom   16 type  3   force =     0.02235008   -0.01119492   -0.01407965
     atom   17 type  3   force =     0.02262119   -0.01037404    0.01539800
     atom   18 type  4   force =     0.00025407   -0.00270735    0.00276640
     atom   19 type  4   force =    -0.00985090   -0.00002979   -0.00906626
     atom   20 type  4   force =    -0.00975210    0.00033530    0.00885606
     atom   21 type  4   force =     0.01018668    0.00002058   -0.00983780
     atom   22 type  4   force =     0.01011659    0.00028401    0.00964031
     atom   23 type  5   force =     0.00000000    0.00000000    0.00000000
     The Hubbard contrib.    to forces
     atom    1 type  1   force =     0.00000000    0.00000000    0.00000000
     atom    2 type  1   force =     0.00000000    0.00000000    0.00000000
     atom    3 type  1   force =     0.00000000    0.00000000    0.00000000
     atom    4 type  1   force =     0.00000000    0.00000000    0.00000000
     atom    5 type  1   force =     0.00000000    0.00000000    0.00000000
     atom    6 type  2   force =     0.00000000    0.00000000    0.00000000
     atom    7 type  2   force =     0.00000000    0.00000000    0.00000000
     atom    8 type  3   force =     0.00000000    0.00000000    0.00000000
     atom    9 type  3   force =     0.00000000    0.00000000    0.00000000
     atom   10 type  3   force =     0.00000000    0.00000000    0.00000000
     atom   11 type  3   force =     0.00000000    0.00000000    0.00000000
     atom   12 type  3   force =     0.00000000    0.00000000    0.00000000
     atom   13 type  3   force =     0.00000000    0.00000000    0.00000000
     atom   14 type  3   force =     0.00000000    0.00000000    0.00000000
     atom   15 type  3   force =     0.00000000    0.00000000    0.00000000
     atom   16 type  3   force =     0.00000000    0.00000000    0.00000000
     atom   17 type  3   force =     0.00000000    0.00000000    0.00000000
     atom   18 type  4   force =     0.00000000    0.00000000    0.00000000
     atom   19 type  4   force =     0.00000000    0.00000000    0.00000000
     atom   20 type  4   force =     0.00000000    0.00000000    0.00000000
     atom   21 type  4   force =     0.00000000    0.00000000    0.00000000
     atom   22 type  4   force =     0.00000000    0.00000000    0.00000000
     atom   23 type  5   force =     0.00000000    0.00000000    0.00000000
     The SCF correction term to forces
     atom    1 type  1   force =     0.00431931   -0.00046381    0.01302160
     atom    2 type  1   force =     0.00403500   -0.00017122    0.02486036
     atom    3 type  1   force =     0.00331431    0.00083015    0.02386165
     atom    4 type  1   force =    -0.00155187    0.00421025    0.02457935
     atom    5 type  1   force =    -0.00094464   -0.00352001    0.02374770
     atom    6 type  2   force =     0.00700609    0.00784690    0.03199996
     atom    7 type  2   force =     0.00567938   -0.00031199    0.01661316
     atom    8 type  3   force =     0.01272081   -0.00059582    0.02481242
     atom    9 type  3   force =     0.01286706   -0.00076709    0.02319122
     atom   10 type  3   force =     0.00017119    0.00716726   -0.00217199
     atom   11 type  3   force =     0.00543163   -0.00594089   -0.00914005
     atom   12 type  3   force =     0.00019023   -0.00712433   -0.00202006
     atom   13 type  3   force =     0.00453586    0.00731396   -0.00810210
     atom   14 type  3   force =     0.00254811    0.00952158   -0.00133121
     atom   15 type  3   force =    -0.00311090   -0.00572226   -0.00969618
     atom   16 type  3   force =     0.00230198   -0.00894739   -0.00109380
     atom   17 type  3   force =    -0.00193361    0.00676890   -0.00875516
     atom   18 type  4   force =     0.00623924   -0.00722933    0.02877371
     atom   19 type  4   force =     0.00251668    0.00015323   -0.00154372
     atom   20 type  4   force =     0.00399465   -0.00084464   -0.00804423
     atom   21 type  4   force =     0.00183082   -0.00015238    0.00320668
     atom   22 type  4   force =    -0.00097141   -0.00071234   -0.01186958
     atom   23 type  5   force =    -0.00373404    0.00001701    0.00207013

     Total force =     0.535076     Total SCF correction =     0.086953
     SCF correction compared to forces is large: reduce conv_thr to get better values

     Computing stress (Cartesian axis) and pressure

     negative rho (up, down):  9.089E-01 9.089E-01
          total   stress  (Ry/bohr**3)                   (kbar)     P=       82.81
   0.00063625   0.00000030  -0.00000056           93.60        0.04       -0.08
   0.00000030   0.00066415  -0.00001494            0.04       97.70       -2.20
  -0.00000056  -0.00001494   0.00038846           -0.08       -2.20       57.14

     Entering Dynamics:    iteration =    20
                           time      =   0.0041 pico-seconds

ATOMIC_POSITIONS (angstrom)
Hf            2.6724999330        2.8268030182        6.6040946618
Hf            1.2541404151        1.2861195606        5.0584509349
Hf            1.2566445541        7.3899419644        5.0881103171
Hf            4.0908974814        1.2861479752        5.0584405512
Hf            4.0883938589        7.3899144606        5.0881204056
Nb            2.6724893361        2.7965419095        3.5157178291
Nb            2.6724856194        5.8767278953        6.6348629721
Ta            1.2105202986        4.3409717882        5.0710892120
Ta            4.0808811291        4.3410927786        5.0709239427
Ta            1.3094969676        1.3137604366        2.0581076287
Ta            1.3050603797        1.3079723908        8.0952095092
Ta            1.3063063900        7.3762441914        2.0456198855
Ta            1.3099996702        7.3654329404        8.0866699470
Ta            4.0355180808        1.3137845622        2.0581245186
Ta            4.0399608087        1.3080118631        8.0951817008
Ta            4.0387168992        7.3762108142        2.0456474088
Ta            4.0350133130        7.3654069075        8.0866518297
Zr            2.6724579746        5.8668909583        3.5270796484
Zr            1.2434022661        4.3219729166        1.9974274950
Zr            1.2398679254        4.3542541462        8.1523617335
Zr            4.1016244082        4.3219546128        1.9974457507
Zr            4.1051583978        4.3542693534        8.1523334572
H             6.7827357803        4.3284367915        5.0869171592

     kinetic energy (Ekin) =           8.05265929 Ry
     temperature           =       38527.70736686 K
     Ekin + Etot (const)   =       -2934.94254905 Ry
     Ions kinetic stress =          142.22 (kbar)
                                    426.48          -2.17           2.76
                                     -2.17           0.02          -0.01
                                      2.76          -0.01           0.15

     Linear momentum :    0.0000000000   -0.0000000000    0.0000000000

     The maximum number of steps has been reached.

     End of molecular dynamics calculation

     diffusion coefficients :
     atom     1   D =       0.00000003 cm^2/s
     atom     2   D =       0.00000001 cm^2/s
     atom     3   D =       0.00000001 cm^2/s
     atom     4   D =       0.00000006 cm^2/s
     atom     5   D =       0.00000006 cm^2/s
     atom     6   D =       0.00000003 cm^2/s
     atom     7   D =       0.00000003 cm^2/s
     atom     8   D =       0.00000001 cm^2/s
     atom     9   D =       0.00001015 cm^2/s
     atom    10   D =       0.00000002 cm^2/s
     atom    11   D =       0.00000002 cm^2/s
     atom    12   D =       0.00000002 cm^2/s
     atom    13   D =       0.00000002 cm^2/s
     atom    14   D =       0.00000003 cm^2/s
     atom    15   D =       0.00000003 cm^2/s
     atom    16   D =       0.00000003 cm^2/s
     atom    17   D =       0.00000003 cm^2/s
     atom    18   D =       0.00000003 cm^2/s
     atom    19   D =       0.00000003 cm^2/s
     atom    20   D =       0.00000003 cm^2/s
     atom    21   D =       0.00000015 cm^2/s
     atom    22   D =       0.00000015 cm^2/s
     atom    23   D =       0.00174551 cm^2/s

     < D > =       0.00007637 cm^2/s

     Writing all to output data dir outdir/pwscf.save/

     General routines

     Parallel routines

   This run was terminated on:   7: 5:11  13Jun2023

   JOB DONE.