     Program PWSCF v.7.2 starts on  5Jun2023 at 22:53:24

     Reading input from md_Hf5Nb2Ta10Zr5H_relaxed_slab.in
Warning: card &CELL ignored
Warning: card / ignored

     Current dimensions of program PWSCF are:
     Max number of different atomic species (ntypx) = 10
     Max number of k-points (npk) =  40000
     Max angular momentum in pseudopotentials (lmaxx) =  4

     gamma-point specific algorithms are used

     R & G space division:  proc/nbgrp/npool/nimage =      12
     Subspace diagonalization in iterative solution of the eigenvalue problem:
     one sub-group per band group will be used

     Using Slab Decomposition

     bravais-lattice index     =            0
     lattice parameter (alat)  =      15.7603  a.u.
     unit-cell volume          =    4958.3580 (a.u.)^3
     number of atoms/cell      =           23
     number of atomic types    =            5
     number of electrons       =       277.00
     number of Kohn-Sham states=          167
     kinetic-energy cutoff     =     120.0000  Ry
     charge density cutoff     =     480.0000  Ry
     scf convergence threshold =      1.0E-03
     mixing beta               =       0.7000
     number of iterations used =            8  TF        mixing
     energy convergence thresh.=      0.0E+00
     force convergence thresh. =      0.0E+00
     Exchange-correlation=  SLA  PW   PBX  PBC
                           (   1   4   3   4   0   0   0)
     nstep                     =           10

     celldm(1)=  15.760315  celldm(2)=   0.000000  celldm(3)=   0.000000
     celldm(4)=   0.000000  celldm(5)=   0.000000  celldm(6)=   0.000000

     crystal axes: (cart. coord. in units of alat)
               a(1) = (   1.000000   0.000000   0.000000 )
               a(2) = (   0.000000   1.040767   0.000000 )
               a(3) = (   0.000000   0.000000   1.216997 )

     reciprocal axes: (cart. coord. in units 2 pi/alat)
               b(1) = (  1.000000  0.000000  0.000000 )
               b(2) = (  0.000000  0.960830  0.000000 )
               b(3) = (  0.000000  0.000000  0.821695 )

     PseudoPot. # 1 for Hf read from file:
     q-e/pseudo/hf_pbe_v1.uspp.F.UPF
     MD5 check sum: 8ee9378dfe14276e333edf04c5e4aa26
     Pseudo is Ultrasoft + core correction, Zval = 12.0
     Generated by new atomic code, or converted to UPF format
     Using radial grid of  921 points,  8 beta functions with:
                l(1) =   0
                l(2) =   0
                l(3) =   0
                l(4) =   1
                l(5) =   1
                l(6) =   2
                l(7) =   2
                l(8) =   3
     Q(r) pseudized with  6 coefficients,  rinner =    1.200   1.200   1.200
                                                       1.200   1.200   1.200
                                                       1.200

     PseudoPot. # 2 for Nb read from file:
     q-e/pseudo/nb_pbe_v1.uspp.F.UPF
     MD5 check sum: 573aab8a2fa660278ed4a62cd769473f
     Pseudo is Ultrasoft + core correction, Zval = 13.0
     Generated by new atomic code, or converted to UPF format
     Using radial grid of  887 points,  6 beta functions with:
                l(1) =   0
                l(2) =   0
                l(3) =   1
                l(4) =   1
                l(5) =   2
                l(6) =   2
     Q(r) pseudized with  6 coefficients,  rinner =    1.000   1.000   1.000
                                                       1.000   1.000

     PseudoPot. # 3 for Ta read from file:
     q-e/pseudo/ta_pbe_v1.uspp.F.UPF
     MD5 check sum: f8bbe9446314a3b8ea5d9f3e3836c939
     Pseudo is Ultrasoft + core correction, Zval = 13.0
     Generated by new atomic code, or converted to UPF format
     Using radial grid of  921 points,  7 beta functions with:
                l(1) =   0
                l(2) =   0
                l(3) =   1
                l(4) =   1
                l(5) =   2
                l(6) =   2
                l(7) =   3
     Q(r) pseudized with  6 coefficients,  rinner =    1.300   1.300   1.300
                                                       1.300   1.300   1.300
                                                       1.300

     PseudoPot. # 4 for Zr read from file:
     q-e/pseudo/zr_pbe_v1.uspp.F.UPF
     MD5 check sum: 5db81b1e868ab7776c4564c113de050b
     Pseudo is Ultrasoft + core correction, Zval = 12.0
     Generated by new atomic code, or converted to UPF format
     Using radial grid of  887 points,  6 beta functions with:
                l(1) =   0
                l(2) =   0
                l(3) =   1
                l(4) =   1
                l(5) =   2
                l(6) =   2
     Q(r) pseudized with  6 coefficients,  rinner =    1.200   1.200   1.200
                                                       1.200   1.200

     PseudoPot. # 5 for H  read from file:
     q-e/pseudo/h_pbe_v1.4.uspp.F.UPF
     MD5 check sum: 761ae9a214b05c3daf00ab9f6b793d6f
     Pseudo is Ultrasoft, Zval =  1.0
     Generated by new atomic code, or converted to UPF format
     Using radial grid of  615 points,  2 beta functions with:
                l(1) =   0
                l(2) =   0
     Q(r) pseudized with  8 coefficients,  rinner =    0.700

     atomic species   valence    mass     pseudopotential
        Hf            12.00   178.49000     Hf( 1.00)
        Nb            13.00    92.90637     Nb( 1.00)
        Ta            13.00   180.94788     Ta( 1.00)
        Zr            12.00    91.22400     Zr( 1.00)
        H              1.00     2.01400     H ( 1.00)

     Starting magnetic structure
     atomic species   magnetization
        Hf           0.000
        Nb           0.000
        Ta           0.000
        Zr           0.000
        H            0.000

     No symmetry found

   Cartesian axes

     site n.     atom                  positions (alat units)
         1           Hf  tau(   1) = (   0.3201439   0.3389836   0.7918423  )
         2           Hf  tau(   2) = (   0.1502387   0.1542307   0.6065307  )
         3           Hf  tau(   3) = (   0.1505380   0.8860677   0.6100801  )
         4           Hf  tau(   4) = (   0.4900491   0.1542307   0.6065307  )
         5           Hf  tau(   5) = (   0.4897498   0.8860677   0.6100801  )
         6           Nb  tau(   6) = (   0.3201439   0.3353634   0.4215328  )
         7           Nb  tau(   7) = (   0.3201439   0.7046018   0.7955633  )
         8           Ta  tau(   8) = (   0.1450088   0.5204950   0.6080487  )
         9           Ta  tau(   9) = (   0.4952790   0.5204950   0.6080487  )
        10           Ta  tau(  10) = (   0.1567449   0.1575687   0.2468560  )
        11           Ta  tau(  11) = (   0.1562096   0.1568814   0.9705731  )
        12           Ta  tau(  12) = (   0.1563561   0.8843917   0.2453522  )
        13           Ta  tau(  13) = (   0.1567999   0.8831035   0.9695447  )
        14           Ta  tau(  14) = (   0.4835429   0.1575687   0.2468560  )
        15           Ta  tau(  15) = (   0.4840781   0.1568814   0.9705731  )
        16           Ta  tau(  16) = (   0.4839317   0.8843917   0.2453522  )
        17           Ta  tau(  17) = (   0.4834879   0.8831035   0.9695447  )
        18           Zr  tau(  18) = (   0.3201439   0.7033916   0.4229477  )
        19           Zr  tau(  19) = (   0.1491408   0.5182348   0.2398082  )
        20           Zr  tau(  20) = (   0.1487273   0.5220772   0.9771889  )
        21           Zr  tau(  21) = (   0.4911469   0.5182348   0.2398082  )
        22           Zr  tau(  22) = (   0.4915605   0.5220772   0.9771889  )
        23           H   tau(  23) = (   0.6751351   0.5203837   0.6081751  )

     number of k points=     1  Gaussian smearing, width (Ry)=  0.0220
                       cart. coord. in units 2pi/alat
        k(    1) = (   0.0000000   0.0000000   0.0000000), wk =   1.0000000

     Check: negative core charge=   -0.000002
     Generating pointlists ...
     new r_m :   0.1251 (alat units)  1.9717 (a.u.) for type    1
     new r_m :   0.1229 (alat units)  1.9374 (a.u.) for type    2
     new r_m :   0.0742 (alat units)  1.1693 (a.u.) for type    3
     new r_m :   0.1245 (alat units)  1.9625 (a.u.) for type    4
     new r_m :   0.0742 (alat units)  1.1693 (a.u.) for type    5

     Initial potential from superposition of free atoms

     starting charge     266.9726, renormalised to     277.0000

     negative rho (up, down):  9.206E-01 9.206E-01
     Starting wfcs are  287 randomized atomic wfcs

     Self-consistent Calculation

     iteration #  1     ecut=   120.00 Ry     beta= 0.70
     Davidson diagonalization with overlap
     ethr =  1.00E-02,  avg # of iterations =  3.0

     negative rho (up, down):  9.825E-01 9.822E-01

     total energy              =   -2932.09787611 Ry
     estimated scf accuracy    <     291.81665252 Ry

     total magnetization       =    -0.00 Bohr mag/cell
     absolute magnetization    =     0.08 Bohr mag/cell

[...]

     Magnetic moment per site  (integrated on atomic sphere of radius R)
     atom   1 (R=0.125)  charge=  9.4607   -0.0000
     atom   2 (R=0.125)  charge=  9.0586    0.0003
     atom   3 (R=0.125)  charge=  9.0582    0.0000
     atom   4 (R=0.125)  charge=  9.0565    0.0003
     atom   5 (R=0.125)  charge=  9.0561   -0.0002
     atom   6 (R=0.123)  charge= 10.3453   -0.0000
     atom   7 (R=0.123)  charge= 10.3469   -0.0001
     atom   8 (R=0.074)  charge=  5.2336    0.0001
     atom   9 (R=0.074)  charge=  5.2523    0.0001
     atom  10 (R=0.074)  charge=  5.2165    0.0002
     atom  11 (R=0.074)  charge=  5.2160    0.0001
     atom  12 (R=0.074)  charge=  5.2167   -0.0002
     atom  13 (R=0.074)  charge=  5.2164   -0.0003
     atom  14 (R=0.074)  charge=  5.2164    0.0004
     atom  15 (R=0.074)  charge=  5.2162    0.0001
     atom  16 (R=0.074)  charge=  5.2177   -0.0005
     atom  17 (R=0.074)  charge=  5.2156   -0.0003
     atom  18 (R=0.125)  charge=  9.4559   -0.0001
     atom  19 (R=0.125)  charge=  9.0006    0.0016
     atom  20 (R=0.125)  charge=  8.9992   -0.0017
     atom  21 (R=0.125)  charge=  8.9970    0.0014
     atom  22 (R=0.125)  charge=  8.9971   -0.0014
     atom  23 (R=0.074)  charge=  0.8828    0.0000

     End of self-consistent calculation

 ------ SPIN UP ------------

          k = 0.0000 0.0000 0.0000 ( 55051 PWs)   bands (ev):

   -59.4835 -59.4792 -59.4383 -59.4341 -59.4051 -59.4005 -59.3613 -59.3568
   -59.2289 -58.7539 -53.0943 -53.0370 -52.9704 -52.9136 -51.3633 -44.9047
   -44.9022 -40.3153 -40.3042 -40.2129 -40.2093 -38.4707 -26.4831 -26.4774
   -26.3989 -26.3897 -26.3024 -26.2977 -26.1788 -26.1696 -26.0539 -26.0250
   -25.9890 -25.9612 -25.9542 -25.9266 -25.9161 -25.8665 -25.8562 -25.8353
   -25.7983 -25.6685 -25.6644 -25.6535 -25.6450 -25.5915 -25.5874 -25.5689
   -25.5657 -25.5010 -25.4764 -25.4288 -22.8717 -22.6621 -22.3480 -22.2720
   -22.0102 -21.8682 -21.8452 -21.7436 -21.6277 -21.5586 -21.5419 -21.3266
   -21.1531 -21.1059 -21.0626 -21.0112 -20.9555 -20.8982 -20.4339 -20.3630
   -20.2984 -18.8783 -18.5973 -18.5243 -18.5043 -18.2909 -18.2830 -18.2623
   -18.2540 -18.2470 -18.2047 -18.0442 -18.0304 -16.8211 -16.6133 -16.4934
[...]
     8.9107   8.9547   9.1856   9.2581   9.3605   9.3859   9.5717   9.6118
     9.6342   9.6413   9.6695   9.6838   9.7394   9.8833  10.0096  10.0864
    10.1389  10.2408  10.3612  10.4119  10.4236  10.5511  10.5730

     the Fermi energy is     8.5620 ev

!    total energy              =   -2942.98296318 Ry
     estimated scf accuracy    <       0.00099310 Ry
     smearing contrib. (-TS)   =      -0.10152739 Ry
     internal energy E=F+TS    =   -2942.88143579 Ry

     total magnetization       =    -0.00 Bohr mag/cell
     absolute magnetization    =     0.00 Bohr mag/cell

     convergence has been achieved in   4 iterations

     negative rho (up, down):  9.078E-01 9.078E-01

     Forces acting on atoms (cartesian axes, Ry/au):

     atom    1 type  1   force =    -0.00640925   -0.02666378    0.02275973
     atom    2 type  1   force =    -0.11948523   -0.01643283    0.00883367
     atom    3 type  1   force =    -0.11789003    0.01390526    0.01350661
     atom    4 type  1   force =     0.11996817   -0.01427757    0.00758721
     atom    5 type  1   force =     0.11869403    0.01189904    0.01462403
     atom    6 type  2   force =    -0.00835499   -0.01585719   -0.00000990
     atom    7 type  2   force =    -0.00859916    0.01413957   -0.00287533
     atom    8 type  3   force =    -0.13568153    0.00355168   -0.00002196
     atom    9 type  3   force =    -0.17228089    0.00374585   -0.00290701
     atom   10 type  3   force =    -0.02345893   -0.02816697   -0.06691678
     atom   11 type  3   force =    -0.02216078   -0.03634460    0.05577089
     atom   12 type  3   force =    -0.01869826    0.03448583   -0.06307308
     atom   13 type  3   force =    -0.01932352    0.03010218    0.05793231
     atom   14 type  3   force =     0.02380114   -0.02746549   -0.06489879
     atom   15 type  3   force =     0.02203032   -0.03363842    0.05235020
     atom   16 type  3   force =     0.01880095    0.03217223   -0.05948795
     atom   17 type  3   force =     0.01933417    0.02936021    0.05595783
     atom   18 type  4   force =    -0.00741528    0.02448574   -0.01818248
     atom   19 type  4   force =    -0.13079443   -0.00423000   -0.11892151
     atom   20 type  4   force =    -0.13612747    0.00514023    0.11377434
     atom   21 type  4   force =     0.13019688   -0.00520658   -0.12102706
     atom   22 type  4   force =     0.13525661    0.00601555    0.11554578
     atom   23 type  5   force =     0.33859747   -0.00071994   -0.00032074
     The non-local contrib.  to forces
     atom    1 type  1   force =    -0.00436797   -0.01953749    0.03756259
     atom    2 type  1   force =    -0.24459912   -0.16303622    0.02524011
     atom    3 type  1   force =    -0.23920815    0.15797763   -0.02139749
     atom    4 type  1   force =     0.25776469   -0.15833156    0.02388463
     atom    5 type  1   force =     0.25293082    0.15331352   -0.02086555
     atom    6 type  2   force =    -0.00928657   -0.06082334   -0.06861254
     atom    7 type  2   force =    -0.01075516    0.07220854    0.06272787
     atom    8 type  3   force =    -0.25948295   -0.00007876    0.00076587
     atom    9 type  3   force =    -0.04757423    0.00155446   -0.00213696
     atom   10 type  3   force =    -0.21610788    0.00887304   -0.21856829
     atom   11 type  3   force =    -0.21901961    0.00805900    0.20347999
     atom   12 type  3   force =    -0.20243548   -0.02334168   -0.19152128
     atom   13 type  3   force =    -0.20992069   -0.00694067    0.21254466
     atom   14 type  3   force =     0.21834070    0.00618100   -0.21993514
     atom   15 type  3   force =     0.22164971    0.00849006    0.20405533
     atom   16 type  3   force =     0.20480427   -0.02262931   -0.19230744
     atom   17 type  3   force =     0.21084640   -0.00473856    0.21443619
     atom   18 type  4   force =    -0.00949430    0.06787562   -0.06690418
     atom   19 type  4   force =     0.07192724    0.00732626    0.06218664
     atom   20 type  4   force =     0.06521668   -0.01013002   -0.05888706
     atom   21 type  4   force =    -0.06834159    0.00690468    0.06558192
     atom   22 type  4   force =    -0.06238960   -0.00958224   -0.06217106
     atom   23 type  5   force =    -0.11055386    0.00011446   -0.00018456
     The ionic contribution  to forces
     atom    1 type  1   force =    -0.25203174   -4.69511462   14.48027738
     atom    2 type  1   force =   -34.48732827   -6.23179723    0.77975221
     atom    3 type  1   force =   -34.47125481    6.21871437   -0.70846949
     atom    4 type  1   force =    34.29407353   -6.47859925    0.77776860
     atom    5 type  1   force =    34.27728499    6.46367772   -0.70856163
     atom    6 type  2   force =    -0.26472068   -3.65455246  -14.41288496
     atom    7 type  2   force =    -0.26535139    3.69315951   14.44492545
     atom    8 type  3   force =   -46.15230947    0.07476657   -0.06935417
     atom    9 type  3   force =    42.84957453    0.08148748   -0.07916233
     atom   10 type  3   force =   -31.08107376   -2.13861023  -23.61612714
     atom   11 type  3   force =   -30.14940025   -0.88581202   22.61812377
     atom   12 type  3   force =   -30.27302009    0.83997599  -22.67286683
     atom   13 type  3   force =   -31.05756569    2.22733681   23.59807941
     atom   14 type  3   force =    30.99557948   -2.18002849  -23.67761501
     atom   15 type  3   force =    30.06561980   -0.92773594   22.67996554
     atom   16 type  3   force =    30.18893849    0.87884563  -22.73231622
     atom   17 type  3   force =    30.97119772    2.26928262   23.66033154
     atom   18 type  4   force =    -0.24947927    4.44348630  -14.32774722
     atom   19 type  4   force =   -31.02926462    0.95681875  -26.02729671
     atom   20 type  4   force =   -31.00034023   -0.95555586   26.00574342
     atom   21 type  4   force =    30.84984536    0.95780219  -26.28791492
     atom   22 type  4   force =    30.82188660   -0.95464978   26.26858480
     atom   23 type  5   force =     5.41913976   -0.00289805    0.00676451
     The local contribution  to forces
     atom    1 type  1   force =     0.25535369    4.68271788  -14.46882365
     atom    2 type  1   force =    34.63297494    6.37990117   -0.75948917
     atom    3 type  1   force =    34.61355721   -6.36561906    0.78308886
     atom    4 type  1   force =   -34.44991192    6.62760687   -0.75761007
     atom    5 type  1   force =   -34.42969853   -6.61186830    0.78329978
     atom    6 type  2   force =     0.27376966    3.70405969   14.49901885
     atom    7 type  2   force =     0.27461053   -3.74498328  -14.47869360
     atom    8 type  3   force =    46.32478091   -0.07098752    0.10789266
     atom    9 type  3   force =   -42.98782457   -0.07856885    0.11614759
     atom   10 type  3   force =    31.30523844    2.09705941   23.75534948
     atom   11 type  3   force =    30.37725800    0.82419674  -22.77435259
     atom   12 type  3   force =    30.48678977   -0.77612696   22.78874604
     atom   13 type  3   force =    31.27714894   -2.17357733  -23.76171883
     atom   14 type  3   force =   -31.22049047    2.14163982   23.81964062
     atom   15 type  3   force =   -30.29414127    0.86718185  -22.83911549
     atom   16 type  3   force =   -30.40310018   -0.81737238   22.85216544
     atom   17 type  3   force =   -31.19003029   -2.21740582  -23.82689961
     atom   18 type  4   force =     0.25938171   -4.49043784   14.39378977
     atom   19 type  4   force =    30.84753243   -0.96951982   25.83068606
     atom   20 type  4   force =    30.81324471    0.97049414  -25.83322308
     atom   21 type  4   force =   -30.66903242   -0.97072552   26.09098800
     atom   22 type  4   force =   -30.63571227    0.96969161  -26.09501087
     atom   23 type  5   force =    -4.96925479    0.00203744   -0.00171592
     The core correction contribution to forces
     atom    1 type  1   force =     0.00111005    0.00313813   -0.00160722
     atom    2 type  1   force =    -0.01196046   -0.00149051    0.00103090
     atom    3 type  1   force =    -0.01219755    0.00234713   -0.00156327
     atom    4 type  1   force =     0.01233017   -0.00160899    0.00111318
     atom    5 type  1   force =     0.01250625    0.00246338   -0.00177484
     atom    6 type  2   force =     0.00032364    0.00264313    0.00260482
     atom    7 type  2   force =     0.00037868   -0.00327759   -0.00211633
     atom    8 type  3   force =    -0.03079279    0.00035572   -0.00053015
     atom    9 type  3   force =     0.00179192    0.00015601   -0.00062885
     atom   10 type  3   force =    -0.02222730    0.00886735   -0.01660980
     atom   11 type  3   force =    -0.02373688    0.00924338    0.01718107
     atom   12 type  3   force =    -0.02218479   -0.00922262   -0.01612943
     atom   13 type  3   force =    -0.02185204   -0.00845645    0.01694519
     atom   14 type  3   force =     0.02346389    0.00985414   -0.01499122
     atom   15 type  3   force =     0.02445680    0.01092203    0.01533878
     atom   16 type  3   force =     0.02294438   -0.01083510   -0.01426783
     atom   17 type  3   force =     0.02274240   -0.00960224    0.01524511
     atom   18 type  4   force =     0.00048981   -0.00359036    0.00326189
     atom   19 type  4   force =    -0.01024503    0.00017345   -0.00911043
     atom   20 type  4   force =    -0.01007642    0.00014142    0.00891709
     atom   21 type  4   force =     0.01028753    0.00020310   -0.00920190
     atom   22 type  4   force =     0.01015727    0.00010933    0.00899284
     atom   23 type  5   force =     0.00000000    0.00000000    0.00000000
     The Hubbard contrib.    to forces
     atom    1 type  1   force =     0.00000000    0.00000000    0.00000000
     atom    2 type  1   force =     0.00000000    0.00000000    0.00000000
     atom    3 type  1   force =     0.00000000    0.00000000    0.00000000
     atom    4 type  1   force =     0.00000000    0.00000000    0.00000000
     atom    5 type  1   force =     0.00000000    0.00000000    0.00000000
     atom    6 type  2   force =     0.00000000    0.00000000    0.00000000
     atom    7 type  2   force =     0.00000000    0.00000000    0.00000000
     atom    8 type  3   force =     0.00000000    0.00000000    0.00000000
     atom    9 type  3   force =     0.00000000    0.00000000    0.00000000
     atom   10 type  3   force =     0.00000000    0.00000000    0.00000000
     atom   11 type  3   force =     0.00000000    0.00000000    0.00000000
     atom   12 type  3   force =     0.00000000    0.00000000    0.00000000
     atom   13 type  3   force =     0.00000000    0.00000000    0.00000000
     atom   14 type  3   force =     0.00000000    0.00000000    0.00000000
     atom   15 type  3   force =     0.00000000    0.00000000    0.00000000
     atom   16 type  3   force =     0.00000000    0.00000000    0.00000000
     atom   17 type  3   force =     0.00000000    0.00000000    0.00000000
     atom   18 type  4   force =     0.00000000    0.00000000    0.00000000
     atom   19 type  4   force =     0.00000000    0.00000000    0.00000000
     atom   20 type  4   force =     0.00000000    0.00000000    0.00000000
     atom   21 type  4   force =     0.00000000    0.00000000    0.00000000
     atom   22 type  4   force =     0.00000000    0.00000000    0.00000000
     atom   23 type  5   force =     0.00000000    0.00000000    0.00000000
     The SCF correction term to forces
     atom    1 type  1   force =    -0.00000000    0.00000000   -0.00000000
     atom    2 type  1   force =    -0.00000000   -0.00000000   -0.00000000
     atom    3 type  1   force =    -0.00000000    0.00000000   -0.00000000
     atom    4 type  1   force =     0.00000000   -0.00000000   -0.00000000
     atom    5 type  1   force =     0.00000000    0.00000000   -0.00000000
     atom    6 type  2   force =    -0.00000000   -0.00000000   -0.00000000
     atom    7 type  2   force =    -0.00000000   -0.00000000   -0.00000000
     atom    8 type  3   force =    -0.00000000   -0.00000000   -0.00000000
     atom    9 type  3   force =     0.00000000   -0.00000000   -0.00000000
     atom   10 type  3   force =    -0.00000000   -0.00000000    0.00000000
     atom   11 type  3   force =    -0.00000000    0.00000000   -0.00000000
     atom   12 type  3   force =    -0.00000000    0.00000000    0.00000000
     atom   13 type  3   force =    -0.00000000   -0.00000000   -0.00000000
     atom   14 type  3   force =     0.00729384   -0.00517440    0.03008308
     atom   15 type  3   force =     0.00483157    0.00744114   -0.00581285
     atom   16 type  3   force =     0.00560029    0.00410096    0.02931921
     atom   17 type  3   force =     0.00496424   -0.00823821   -0.00507427
     atom   18 type  4   force =    -0.00792693    0.00708959   -0.01850161
     atom   19 type  4   force =    -0.01035815    0.00090893    0.02669404
     atom   20 type  4   force =    -0.00378591    0.00012812   -0.00669492
     atom   21 type  4   force =     0.00782430    0.00054654    0.02160095
     atom   22 type  4   force =     0.00170092    0.00038420   -0.00276881
     atom   23 type  5   force =    -0.00034734   -0.00003623   -0.00310365

     Total force =     0.510779     Total SCF correction =     0.063304
     SCF correction compared to forces is large: reduce conv_thr to get better values

     Entering Dynamics:    iteration =    10
                           time      =   0.0051 pico-seconds

ATOMIC_POSITIONS (angstrom)
Hf            2.6699999570        2.8271230292        6.6039642186    0   0   0
Hf            1.2529906802        1.2862841814        5.0584662261    0   0   0
Hf            1.2554868986        7.3898042948        5.0880677674    0   0   0
Hf            4.0870092338        1.2862841814        5.0584662261    0   0   0
Hf            4.0845130154        7.3898042948        5.0880677674    0   0   0
Nb            2.6699999570        2.7969306055        3.5155832167    0   0   0
Nb            2.6699999570        5.8763786763        6.6349979432    0   0   0
Ta            1.2093730560        4.3409278516        5.0711258323    0   0   0
Ta            4.1306268580        4.3409278516        5.0711258323    0   0   0
Ta            1.3072526841        1.3141225894        2.0587791101    0   0   0
Ta            1.3027883142        1.3083911360        8.0945792024    0   0   0
Ta            1.3040096221        7.3758261241        2.0462371798    0   0   0
Ta            1.3077107984        7.3650829484        8.0860022208    0   0   0
Ta            4.0331964962        1.3136213828        2.0577543129
Ta            4.0376280669        1.3078200871        8.0955266768
Ta            4.0363459493        7.3764040652        2.0453084790
Ta            4.0326518392        7.3655740317        8.0870105901
Zr            2.6697530760        5.8672953628        3.5267188498
Zr            1.2390860989        4.3219290654        1.9959984505
Zr            1.2355069533        4.3543031329        8.1538062940
Zr            4.1008827699        4.3218930995        1.9958693566
Zr            4.1044643831        4.3543366332        8.1539141784
H             5.7156343799        4.3384081633        5.0752726532

     kinetic energy (Ekin) =           0.52933501 Ry
     temperature           =        5571.69252252 K
     Ekin + Etot (const)   =       -2942.45362817 Ry

     The maximum number of steps has been reached.

     End of molecular dynamics calculation

     diffusion coefficients :
     atom     1   D =       0.00000000 cm^2/s
     atom     2   D =       0.00000000 cm^2/s
     atom     3   D =       0.00000000 cm^2/s
     atom     4   D =       0.00000000 cm^2/s
     atom     5   D =       0.00000000 cm^2/s
     atom     6   D =       0.00000000 cm^2/s
     atom     7   D =       0.00000000 cm^2/s
     atom     8   D =       0.00000000 cm^2/s
     atom     9   D =       0.00000000 cm^2/s
     atom    10   D =       0.00000000 cm^2/s
     atom    11   D =       0.00000000 cm^2/s
     atom    12   D =       0.00000000 cm^2/s
     atom    13   D =       0.00000000 cm^2/s
     atom    14   D =       0.00000000 cm^2/s
     atom    15   D =       0.00000000 cm^2/s
     atom    16   D =       0.00000000 cm^2/s
     atom    17   D =       0.00000000 cm^2/s
     atom    18   D =       0.00000000 cm^2/s
     atom    19   D =       0.00000013 cm^2/s
     atom    20   D =       0.00000013 cm^2/s
     atom    21   D =       0.00000013 cm^2/s
     atom    22   D =       0.00000013 cm^2/s
     atom    23   D =       0.00002375 cm^2/s

     < D > =       0.00000243 cm^2/s

     Writing all to output data dir outdir/pwscf.save/

     General routines

     Parallel routines

   This run was terminated on:  23:37:57   5Jun2023

   JOB DONE.