     Program PWSCF v.7.2 starts on 16Jun2023 at 18:46:16

     Reading input from md_data/md_Hf5Nb2Ta10Zr5H_20steps_50eV_incident45_polar30.in
Warning: card &CELL ignored
Warning: card / ignored

     Current dimensions of program PWSCF are:
     Max number of different atomic species (ntypx) = 10
     Max number of k-points (npk) =  40000
     Max angular momentum in pseudopotentials (lmaxx) =  4

     File outdir/pwscf.md deleted, as requested

     gamma-point specific algorithms are used

     R & G space division:  proc/nbgrp/npool/nimage =      42
     Subspace diagonalization in iterative solution of the eigenvalue problem:
     one sub-group per band group will be used

     Using Slab Decomposition

     bravais-lattice index     =            0
     lattice parameter (alat)  =      17.6500  a.u.
     unit-cell volume          =    5552.8853 (a.u.)^3
     number of atoms/cell      =           23
     number of atomic types    =            5
     number of electrons       =       277.00
     number of Kohn-Sham states=          167
     kinetic-energy cutoff     =     120.0000  Ry
     charge density cutoff     =     480.0000  Ry
     scf convergence threshold =      1.0E-03
     mixing beta               =       0.7000
     number of iterations used =            8  TF        mixing
     energy convergence thresh.=      0.0E+00
     force convergence thresh. =      0.0E+00
     Exchange-correlation=  SLA  PW   PBX  PBC
                           (   1   4   3   4   0   0   0)
     nstep                     =           20

     celldm(1)=  17.650041  celldm(2)=   0.000000  celldm(3)=   0.000000
     celldm(4)=   0.000000  celldm(5)=   0.000000  celldm(6)=   0.000000

     crystal axes: (cart. coord. in units of alat)
               a(1) = (   1.000000   0.000000   0.000000 )
               a(2) = (   0.000000   0.929336   0.000000 )
               a(3) = (   0.000000   0.000000   1.086698 )

     reciprocal axes: (cart. coord. in units 2 pi/alat)
               b(1) = (  1.000000  0.000000  0.000000 )
               b(2) = (  0.000000  1.076037  0.000000 )
               b(3) = (  0.000000  0.000000  0.920219 )

     PseudoPot. # 1 for Hf read from file:
     q-e/pseudo/hf_pbe_v1.uspp.F.UPF
     MD5 check sum: 8ee9378dfe14276e333edf04c5e4aa26
     Pseudo is Ultrasoft + core correction, Zval = 12.0
     Generated by new atomic code, or converted to UPF format
     Using radial grid of  921 points,  8 beta functions with:
                l(1) =   0
                l(2) =   0
                l(3) =   0
                l(4) =   1
                l(5) =   1
                l(6) =   2
                l(7) =   2
                l(8) =   3
     Q(r) pseudized with  6 coefficients,  rinner =    1.200   1.200   1.200
                                                       1.200   1.200   1.200
                                                       1.200

     PseudoPot. # 2 for Nb read from file:
     q-e/pseudo/nb_pbe_v1.uspp.F.UPF
     MD5 check sum: 573aab8a2fa660278ed4a62cd769473f
     Pseudo is Ultrasoft + core correction, Zval = 13.0
     Generated by new atomic code, or converted to UPF format
     Using radial grid of  887 points,  6 beta functions with:
                l(1) =   0
                l(2) =   0
                l(3) =   1
                l(4) =   1
                l(5) =   2
                l(6) =   2
     Q(r) pseudized with  6 coefficients,  rinner =    1.000   1.000   1.000
                                                       1.000   1.000

     PseudoPot. # 3 for Ta read from file:
     q-e/pseudo/ta_pbe_v1.uspp.F.UPF
     MD5 check sum: f8bbe9446314a3b8ea5d9f3e3836c939
     Pseudo is Ultrasoft + core correction, Zval = 13.0
     Generated by new atomic code, or converted to UPF format
     Using radial grid of  921 points,  7 beta functions with:
                l(1) =   0
                l(2) =   0
                l(3) =   1
                l(4) =   1
                l(5) =   2
                l(6) =   2
                l(7) =   3
     Q(r) pseudized with  6 coefficients,  rinner =    1.300   1.300   1.300
                                                       1.300   1.300   1.300
                                                       1.300

     PseudoPot. # 4 for Zr read from file:
     q-e/pseudo/zr_pbe_v1.uspp.F.UPF
     MD5 check sum: 5db81b1e868ab7776c4564c113de050b
     Pseudo is Ultrasoft + core correction, Zval = 12.0
     Generated by new atomic code, or converted to UPF format
     Using radial grid of  887 points,  6 beta functions with:
                l(1) =   0
                l(2) =   0
                l(3) =   1
                l(4) =   1
                l(5) =   2
                l(6) =   2
     Q(r) pseudized with  6 coefficients,  rinner =    1.200   1.200   1.200
                                                       1.200   1.200

     PseudoPot. # 5 for H  read from file:
     q-e/pseudo/h_pbe_v1.4.uspp.F.UPF
     MD5 check sum: 761ae9a214b05c3daf00ab9f6b793d6f
     Pseudo is Ultrasoft, Zval =  1.0
     Generated by new atomic code, or converted to UPF format
     Using radial grid of  615 points,  2 beta functions with:
                l(1) =   0
                l(2) =   0
     Q(r) pseudized with  8 coefficients,  rinner =    0.700

     atomic species   valence    mass     pseudopotential
        Hf            12.00   178.49000     Hf( 1.00)
        Nb            13.00    92.90637     Nb( 1.00)
        Ta            13.00   180.94788     Ta( 1.00)
        Zr            12.00    91.22400     Zr( 1.00)
        H              1.00     2.01400     H ( 1.00)

     Starting magnetic structure
     atomic species   magnetization
        Hf           0.000
        Nb           0.000
        Ta           0.000
        Zr           0.000
        H            0.000

     No symmetry found

   Cartesian axes

     site n.     atom                  positions (alat units)
         1           Hf  tau(   1) = (   0.2858672   0.3026898   0.7070626  )
         2           Hf  tau(   2) = (   0.1341532   0.1377178   0.5415917  )
         3           Hf  tau(   3) = (   0.1344204   0.7911996   0.5447610  )
         4           Hf  tau(   4) = (   0.4375813   0.1377178   0.5415917  )
         5           Hf  tau(   5) = (   0.4373140   0.7911996   0.5447610  )
         6           Nb  tau(   6) = (   0.2858672   0.2994572   0.3764008  )
         7           Nb  tau(   7) = (   0.2858672   0.6291626   0.7103852  )
         8           Ta  tau(   8) = (   0.1294832   0.4647675   0.5429471  )
         9           Ta  tau(   9) = (   0.4422513   0.4647675   0.5429471  )
        10           Ta  tau(  10) = (   0.1399628   0.1406984   0.2204260  )
        11           Ta  tau(  11) = (   0.1394848   0.1400847   0.8666573  )
        12           Ta  tau(  12) = (   0.1396156   0.7897030   0.2190832  )
        13           Ta  tau(  13) = (   0.1400119   0.7885528   0.8657390  )
        14           Ta  tau(  14) = (   0.4317717   0.1406984   0.2204260  )
        15           Ta  tau(  15) = (   0.4322496   0.1400847   0.8666573  )
        16           Ta  tau(  16) = (   0.4321189   0.7897030   0.2190832  )
        17           Ta  tau(  17) = (   0.4317226   0.7885528   0.8657390  )
        18           Zr  tau(  18) = (   0.2858672   0.6280820   0.3776642  )
        19           Zr  tau(  19) = (   0.1331729   0.4627493   0.2141328  )
        20           Zr  tau(  20) = (   0.1328036   0.4661802   0.8725649  )
        21           Zr  tau(  21) = (   0.4385616   0.4627493   0.2141328  )
        22           Zr  tau(  22) = (   0.4389309   0.4661802   0.8725649  )
        23           H   tau(  23) = (   0.5936660   0.5957971   0.6187673  )

     number of k points=     1  Gaussian smearing, width (Ry)=  0.0220
                       cart. coord. in units 2pi/alat
        k(    1) = (   0.0000000   0.0000000   0.0000000), wk =   1.0000000

     Check: negative core charge=   -0.000002
     Generating pointlists ...
     new r_m :   0.1076 (alat units)  1.9000 (a.u.) for type    1
     new r_m :   0.1098 (alat units)  1.9374 (a.u.) for type    2
     new r_m :   0.0883 (alat units)  1.5589 (a.u.) for type    3
     new r_m :   0.1112 (alat units)  1.9625 (a.u.) for type    4
     new r_m :   0.0883 (alat units)  1.5589 (a.u.) for type    5

     Initial potential from superposition of free atoms

     starting charge     266.9726, renormalised to     277.0000

     negative rho (up, down):  9.217E-01 9.217E-01
     Starting wfcs are  287 randomized atomic wfcs

     Self-consistent Calculation

     iteration #  1     ecut=   120.00 Ry     beta= 0.70
     Davidson diagonalization with overlap
     ethr =  1.00E-02,  avg # of iterations =  2.0

     negative rho (up, down):  9.948E-01 9.944E-01

     total energy              =   -2930.55383767 Ry
     estimated scf accuracy    <     276.97364830 Ry

     total magnetization       =    -0.00 Bohr mag/cell
     absolute magnetization    =     0.09 Bohr mag/cell

[...]

     iteration # 12     ecut=   120.00 Ry     beta= 0.70
     Davidson diagonalization with overlap
     c_bands:  1 eigenvalues not converged
     ethr =  2.73E-06,  avg # of iterations = 19.5

[...]

     Magnetic moment per site  (integrated on atomic sphere of radius R)
     atom   1 (R=0.108)  charge=  9.1665    0.0000
     atom   2 (R=0.108)  charge=  8.8223   -0.0001
     atom   3 (R=0.108)  charge=  8.8213    0.0000
     atom   4 (R=0.108)  charge=  8.8221    0.0002
     atom   5 (R=0.108)  charge=  8.8164    0.0001
     atom   6 (R=0.110)  charge= 10.3492    0.0002
     atom   7 (R=0.110)  charge= 10.3526   -0.0001
     atom   8 (R=0.088)  charge=  8.1250    0.0001
     atom   9 (R=0.088)  charge=  8.1226    0.0003
     atom  10 (R=0.088)  charge=  8.1060   -0.0000
     atom  11 (R=0.088)  charge=  8.1030    0.0004
     atom  12 (R=0.088)  charge=  8.1062   -0.0003
     atom  13 (R=0.088)  charge=  8.1020    0.0002
     atom  14 (R=0.088)  charge=  8.1055    0.0010
     atom  15 (R=0.088)  charge=  8.1011    0.0013
     atom  16 (R=0.088)  charge=  8.1057   -0.0002
     atom  17 (R=0.088)  charge=  8.1086    0.0012
     atom  18 (R=0.111)  charge=  9.4534    0.0002
     atom  19 (R=0.111)  charge=  8.9984   -0.0001
     atom  20 (R=0.111)  charge=  8.9949   -0.0003
     atom  21 (R=0.111)  charge=  8.9973    0.0008
     atom  22 (R=0.111)  charge=  8.9979    0.0004
     atom  23 (R=0.088)  charge=  1.0020   -0.0000

     End of self-consistent calculation

 ------ SPIN UP ------------

          k = 0.0000 0.0000 0.0000 ( 61588 PWs)   bands (ev):

   -60.7868 -60.7825 -60.7452 -60.7382 -60.7075 -60.7024 -60.6634 -60.6581
   -60.5463 -60.4310 -54.3723 -54.3203 -54.2463 -54.1950 -52.7048 -46.2957
   -46.2630 -41.6629 -41.6387 -41.5675 -41.5376 -39.8072 -27.7881 -27.7825
   -27.7010 -27.6971 -27.6032 -27.5958 -27.4737 -27.4656 -27.4002 -27.3395
   -27.3166 -27.2782 -27.2664 -27.2473 -27.2314 -27.1812 -27.1709 -27.1605
   -27.1127 -27.0816 -27.0346 -26.9697 -26.9646 -26.9592 -26.9526 -26.9383
   -26.8942 -26.8889 -26.8616 -26.8581 -24.1625 -23.9463 -23.6553 -23.5529
   -23.3077 -23.1815 -23.1549 -23.0570 -22.9253 -22.8457 -22.8238 -22.5986
[...]
     absolute magnetization    =     0.00 Bohr mag/cell

     convergence has been achieved in   5 iterations

     negative rho (up, down):  9.090E-01 9.090E-01

     Forces acting on atoms (cartesian axes, Ry/au):

     atom    1 type  1   force =    -0.00391624   -0.02471892    0.01439822
     atom    2 type  1   force =    -0.11804206   -0.01598205    0.00216860
     atom    3 type  1   force =    -0.11724689    0.01169684    0.00737606
     atom    4 type  1   force =     0.12329113   -0.01091690   -0.00102141
     atom    5 type  1   force =     0.12814153   -0.01561868    0.01173269
     atom    6 type  2   force =    -0.01536527   -0.02467557   -0.00081455
     atom    7 type  2   force =    -0.02276796    0.00860989   -0.01161781
     atom    8 type  3   force =    -0.11651673    0.00667836    0.00094367
     atom    9 type  3   force =     0.04157610   -0.07434715   -0.06030749
     atom   10 type  3   force =    -0.02015904   -0.02667422   -0.05998165
     atom   11 type  3   force =    -0.02326011   -0.03298904    0.05410352
     atom   12 type  3   force =    -0.01958696    0.03333016   -0.05644703
     atom   13 type  3   force =    -0.01200275    0.03114316    0.06094773
     atom   14 type  3   force =     0.02066446   -0.02872371   -0.06118994
     atom   15 type  3   force =     0.01863837   -0.03878302    0.05864572
     atom   16 type  3   force =     0.01974113    0.03773757   -0.05469242
     atom   17 type  3   force =     0.01103206    0.04050676    0.06152319
     atom   18 type  4   force =    -0.00089587    0.02347405   -0.00905092
     atom   19 type  4   force =    -0.12751009   -0.00474516   -0.11560256
     atom   20 type  4   force =    -0.12877087    0.00483255    0.11281697
     atom   21 type  4   force =     0.12264932   -0.00801290   -0.11591610
     atom   22 type  4   force =     0.12994022    0.00355634    0.11200112
     atom   23 type  5   force =     0.11036652    0.10462162    0.04998441
     The non-local contrib.  to forces
     atom    1 type  1   force =     0.00420089   -0.00674714    0.02690464
     atom    2 type  1   force =    -0.24752599   -0.16126393    0.01765726
     atom    3 type  1   force =    -0.24026081    0.15252269   -0.01870483
     atom    4 type  1   force =     0.24808597   -0.16928950    0.02270830
     atom    5 type  1   force =     0.24649128    0.13465925   -0.00930833
     atom    6 type  2   force =     0.01087584   -0.05310493   -0.06589924
     atom    7 type  2   force =    -0.01046797    0.06911061    0.06679520
     atom    8 type  3   force =    -0.25501022    0.00265996    0.00063163
     atom    9 type  3   force =     0.09012064   -0.09658343   -0.04771853
     atom   10 type  3   force =    -0.21440008    0.00039071   -0.21425759
     atom   11 type  3   force =    -0.21746338    0.00706626    0.19617736
     atom   12 type  3   force =    -0.20500222   -0.02210281   -0.17769038
     atom   13 type  3   force =    -0.20564868   -0.00678630    0.20241674
     atom   14 type  3   force =     0.20792723    0.00384672   -0.21826924
     atom   15 type  3   force =     0.21267852    0.00145398    0.19703232
     atom   16 type  3   force =     0.20261722   -0.02072225   -0.18041599
     atom   17 type  3   force =     0.22781480   -0.01606710    0.19042254
     atom   18 type  4   force =    -0.01168666    0.05910727   -0.05694383
     atom   19 type  4   force =     0.06368343    0.00957427    0.07287818
     atom   20 type  4   force =     0.05776112   -0.01940242   -0.06561103
     atom   21 type  4   force =    -0.05996260    0.01230614    0.06997175
     atom   22 type  4   force =    -0.05701403   -0.00991362   -0.05880602
     atom   23 type  5   force =    -0.05590165   -0.03991796   -0.02952627
     The ionic contribution  to forces
     atom    1 type  1   force =    -0.29971902   -4.80167568   14.23414741
     atom    2 type  1   force =   -39.72733531   -6.15792176    0.76069842
     atom    3 type  1   force =   -39.71973037    6.19527444   -0.74787819
     atom    4 type  1   force =    39.56546484   -6.29911152    0.74530221
     atom    5 type  1   force =    39.15184014    6.82901740   -0.93074283
     atom    6 type  2   force =    -0.32184475   -3.78844855  -14.21286257
     atom    7 type  2   force =    -0.60665649    3.69661126   14.18671303
     atom    8 type  3   force =   -52.35230844    0.03603243   -0.09551488
     atom    9 type  3   force =    50.06264907   -1.32982249   -0.92669088
     atom   10 type  3   force =   -36.06051531   -2.08798856  -23.06925055
     atom   11 type  3   force =   -35.14082020   -0.83954315   22.08698035
     atom   12 type  3   force =   -35.25079963    0.81429516  -22.13611407
     atom   13 type  3   force =   -36.05803410    2.21747145   23.09168668
     atom   14 type  3   force =    35.97291201   -2.11973987  -23.13640105
     atom   15 type  3   force =    35.02438815   -0.86805895   22.16561825
     atom   16 type  3   force =    35.12489388    0.88082872  -22.25016805
     atom   17 type  3   force =    35.81063829    2.39666677   23.32576471
     atom   18 type  4   force =    -0.33481686    4.48212663  -14.15125022
     atom   19 type  4   force =   -35.90052527    0.93776466  -25.51761884
     atom   20 type  4   force =   -35.89397541   -0.98494296   25.51921051
     atom   21 type  4   force =    35.76020705    0.91163876  -25.73330921
     atom   22 type  4   force =    35.57785454   -1.13230418   25.90819766
     atom   23 type  5   force =     5.61623320    1.01182999    0.88348211
     The local contribution  to forces
     atom    1 type  1   force =     0.29069341    4.78173465  -14.23789606
     atom    2 type  1   force =    39.86679249    6.30447523   -0.76357191
     atom    3 type  1   force =    39.85428887   -6.33969418    0.78852138
     atom    4 type  1   force =   -39.69891590    6.45970716   -0.75981803
     atom    5 type  1   force =   -39.27234799   -6.98936753    0.96890696
     atom    6 type  2   force =     0.29832923    3.81551910   14.28251493
     atom    7 type  2   force =     0.59935199   -3.75013893  -14.25280091
     atom    8 type  3   force =    52.51800688   -0.03166128    0.10938877
     atom    9 type  3   force =   -50.11030030    1.36905071    0.93548487
     atom   10 type  3   force =    36.27731755    2.05647768   23.23911469
     atom   11 type  3   force =    35.35531944    0.78920606  -22.25265781
     atom   12 type  3   force =    35.45731929   -0.75201476   22.27203755
     atom   13 type  3   force =    36.27400730   -2.16896653  -23.25476430
     atom   14 type  3   force =   -36.18038041    2.08429164   23.31027257
     atom   15 type  3   force =   -35.23671126    0.81400545  -22.32517815
     atom   16 type  3   force =   -35.32794737   -0.81530375   22.39093408
     atom   17 type  3   force =   -36.04588698   -2.33364839  -23.47660839
     atom   18 type  4   force =     0.34659615   -4.51740372   14.20674919
     atom   19 type  4   force =    35.72126371   -0.95281186   25.33705906
     atom   20 type  4   force =    35.71373866    1.00879554  -25.35385985
     atom   21 type  4   force =   -35.58678095   -0.93339266   25.55561907
     atom   22 type  4   force =   -35.39414235    1.14975002  -25.75075627
     atom   23 type  5   force =    -5.44854846   -0.86690426   -0.80190005
     The core correction contribution to forces
     atom    1 type  1   force =     0.00102934    0.00144540   -0.00181421
     atom    2 type  1   force =    -0.01126707   -0.00142073    0.00029838
     atom    3 type  1   force =    -0.01204387    0.00289094   -0.00130439
     atom    4 type  1   force =     0.01214272   -0.00253786    0.00230368
     atom    5 type  1   force =     0.00799896    0.00599638   -0.00144246
     atom    6 type  2   force =    -0.00038628    0.00282992    0.00313517
     atom    7 type  2   force =     0.00065466   -0.00350023   -0.00270850
     atom    8 type  3   force =    -0.03059454    0.00068302   -0.00008661
     atom    9 type  3   force =     0.01011282   -0.01315859   -0.00692759
     atom   10 type  3   force =    -0.02216978    0.00889777   -0.01696151
     atom   11 type  3   force =    -0.02472401    0.00914020    0.01832309
     atom   12 type  3   force =    -0.02216199   -0.01014616   -0.01536109
     atom   13 type  3   force =    -0.02241420   -0.00975778    0.01591387
     atom   14 type  3   force =     0.02175934    0.00947877   -0.01692574
     atom   15 type  3   force =     0.02312954    0.00971614    0.01624740
     atom   16 type  3   force =     0.02263420   -0.01100384   -0.01516622
     atom   17 type  3   force =     0.02341683   -0.00907319    0.01493381
     atom   18 type  4   force =     0.00066845   -0.00312155    0.00282770
     atom   19 type  4   force =    -0.00986468    0.00002447   -0.00959233
     atom   20 type  4   force =    -0.00972118    0.00070847    0.00919183
     atom   21 type  4   force =     0.00966173   -0.00007819   -0.00943316
     atom   22 type  4   force =     0.01005126    0.00052288    0.00829346
     atom   23 type  5   force =     0.00000000    0.00000000    0.00000000
     The Hubbard contrib.    to forces
     atom    1 type  1   force =     0.00000000    0.00000000    0.00000000
     atom    2 type  1   force =     0.00000000    0.00000000    0.00000000
     atom    3 type  1   force =     0.00000000    0.00000000    0.00000000
     atom    4 type  1   force =     0.00000000    0.00000000    0.00000000
     atom    5 type  1   force =     0.00000000    0.00000000    0.00000000
     atom    6 type  2   force =     0.00000000    0.00000000    0.00000000
     atom    7 type  2   force =     0.00000000    0.00000000    0.00000000
     atom    8 type  3   force =     0.00000000    0.00000000    0.00000000
     atom    9 type  3   force =     0.00000000    0.00000000    0.00000000
     atom   10 type  3   force =     0.00000000    0.00000000    0.00000000
     atom   11 type  3   force =     0.00000000    0.00000000    0.00000000
     atom   12 type  3   force =     0.00000000    0.00000000    0.00000000
     atom   13 type  3   force =     0.00000000    0.00000000    0.00000000
     atom   14 type  3   force =     0.00000000    0.00000000    0.00000000
     atom   15 type  3   force =     0.00000000    0.00000000    0.00000000
     atom   16 type  3   force =     0.00000000    0.00000000    0.00000000
     atom   17 type  3   force =     0.00000000    0.00000000    0.00000000
     atom   18 type  4   force =     0.00000000    0.00000000    0.00000000
     atom   19 type  4   force =     0.00000000    0.00000000    0.00000000
     atom   20 type  4   force =     0.00000000    0.00000000    0.00000000
     atom   21 type  4   force =     0.00000000    0.00000000    0.00000000
     atom   22 type  4   force =     0.00000000    0.00000000    0.00000000
     atom   23 type  5   force =     0.00000000    0.00000000    0.00000000
     The SCF correction term to forces
     atom    1 type  1   force =     0.00020319    0.00048406   -0.00612061
     atom    2 type  1   force =     0.00161787    0.00010935   -0.01209059
     atom    3 type  1   force =     0.00082335    0.00066316   -0.01243495
     atom    4 type  1   force =    -0.00316244    0.00027503   -0.01069461
     atom    5 type  1   force =    -0.00551681    0.00403602   -0.01485768
     atom    6 type  2   force =    -0.00201526   -0.00151091   -0.00687988
     atom    7 type  2   force =    -0.00532610   -0.00351261   -0.00879366
     atom    8 type  3   force =     0.00371365   -0.00107556   -0.01265228
     atom    9 type  3   force =    -0.01068208   -0.00387316   -0.01363240
     atom   10 type  3   force =    -0.00006738   -0.00449161    0.00219627
     atom   11 type  3   force =     0.00475209    0.00110179    0.00610349
     atom   12 type  3   force =     0.00138165    0.00325895    0.00150392
     atom   13 type  3   force =     0.00041099   -0.00085746    0.00651771
     atom   14 type  3   force =    -0.00122966   -0.00664077    0.00095649
     atom   15 type  3   force =    -0.00452254    0.00406057    0.00574886
     atom   16 type  3   force =    -0.00213275    0.00389889    0.00094673
     atom   17 type  3   force =    -0.00462683    0.00258887    0.00783349
     atom   18 type  4   force =    -0.00133289    0.00272563   -0.00961079
     atom   19 type  4   force =    -0.00174322    0.00066350    0.00249434
     atom   20 type  4   force =     0.00374998   -0.00036588    0.00470848
     atom   21 type  4   force =    -0.00015186    0.00147325    0.00205841
     atom   22 type  4   force =    -0.00648514   -0.00453855    0.00589525
     atom   23 type  5   force =    -0.00109252   -0.00042594   -0.00124842

     Total force =     0.519442     Total SCF correction =     0.044958

     Computing stress (Cartesian axis) and pressure

     negative rho (up, down):  9.090E-01 9.090E-01
          total   stress  (Ry/bohr**3)                   (kbar)     P=       87.67
   0.00069826   0.00004078   0.00001632          102.72        6.00        2.40
   0.00004078   0.00069014   0.00001276            6.00      101.52        1.88
   0.00001632   0.00001276   0.00039946            2.40        1.88       58.76

     Entering Dynamics:    iteration =    20
                           time      =   0.0041 pico-seconds

ATOMIC_POSITIONS (angstrom)
Hf            2.6713074734        2.8279641656        6.6047318503
Hf            1.2528909067        1.2871914252        5.0590792438
Hf            1.2553916823        7.3910269502        5.0887329026
Hf            4.0897109258        1.2872188452        5.0590639602
Hf            4.0871844846        7.3908338016        5.0887651092
Nb            2.6713995339        2.7977514589        3.5164889993
Nb            2.6709316776        5.8776960348        6.6353313892
Ta            1.2092804541        4.3421310042        5.0717982958
Ta            4.1123618390        4.3237278645        5.0609265688
Ta            1.3082315283        1.3148724853        2.0587315934
Ta            1.3038008201        1.3090860753        8.0958428751
Ta            1.3050439182        7.3773089668        2.0462290860
Ta            1.3088168428        7.3665175807        8.0873307369
Ta            4.0342218190        1.3148937632        2.0587441786
Ta            4.0386605004        1.3090666386        8.0958838076
Ta            4.0374604867        7.3773321144        2.0462643319
Ta            4.0336805885        7.3665820323        8.0873152304
Zr            2.6713851559        5.8679192153        3.5279158507
Zr            1.2421356730        4.3230482836        1.9980080290
Zr            1.2386812187        4.3552948394        8.1529573971
Zr            4.1002739021        4.3230083586        1.9980414550
Zr            4.1037777561        4.3552679731        8.1529697197
H             5.3375958724        5.4090739203        5.6838259588

     kinetic energy (Ekin) =           4.01109357 Ry
     temperature           =       19190.95716442 K
     Ekin + Etot (const)   =       -2939.03105710 Ry
     Ions kinetic stress =           70.84 (kbar)
                                    103.15          92.02          52.67
                                     92.02          82.28          47.09
                                     52.67          47.09          27.09

     Linear momentum :   -0.0000000000    0.0000000000   -0.0000000000

     The maximum number of steps has been reached.

     End of molecular dynamics calculation

     diffusion coefficients :
     atom     1   D =       0.00000001 cm^2/s
     atom     2   D =       0.00000000 cm^2/s
     atom     3   D =       0.00000001 cm^2/s
     atom     4   D =       0.00000003 cm^2/s
     atom     5   D =       0.00000004 cm^2/s
     atom     6   D =       0.00000001 cm^2/s
     atom     7   D =       0.00000001 cm^2/s
     atom     8   D =       0.00000001 cm^2/s
     atom     9   D =       0.00000301 cm^2/s
     atom    10   D =       0.00000001 cm^2/s
     atom    11   D =       0.00000001 cm^2/s
     atom    12   D =       0.00000001 cm^2/s
     atom    13   D =       0.00000002 cm^2/s
     atom    14   D =       0.00000001 cm^2/s
     atom    15   D =       0.00000002 cm^2/s
     atom    16   D =       0.00000002 cm^2/s
     atom    17   D =       0.00000002 cm^2/s
     atom    18   D =       0.00000002 cm^2/s
     atom    19   D =       0.00000003 cm^2/s
     atom    20   D =       0.00000006 cm^2/s
     atom    21   D =       0.00000009 cm^2/s
     atom    22   D =       0.00000012 cm^2/s
     atom    23   D =       0.00031292 cm^2/s

     < D > =       0.00001376 cm^2/s

     Writing all to output data dir outdir/pwscf.save/

     General routines

     Parallel routines

   This run was terminated on:  19:50:31  16Jun2023

   JOB DONE.