     Program PWSCF v.7.2 starts on 13Jun2023 at 17:14: 1

     Reading input from md_data/md_Hf5Nb2Ta10Zr5H_20steps_100eV_incident60_polar90.in
Warning: card &CELL ignored
Warning: card / ignored

     Current dimensions of program PWSCF are:
     Max number of different atomic species (ntypx) = 10
     Max number of k-points (npk) =  40000
     Max angular momentum in pseudopotentials (lmaxx) =  4

     File outdir/pwscf.md deleted, as requested

     gamma-point specific algorithms are used

     R & G space division:  proc/nbgrp/npool/nimage =      42
     Subspace diagonalization in iterative solution of the eigenvalue problem:
     one sub-group per band group will be used

     Using Slab Decomposition

     bravais-lattice index     =            0
     lattice parameter (alat)  =      17.6500  a.u.
     unit-cell volume          =    5552.8853 (a.u.)^3
     number of atoms/cell      =           23
     number of atomic types    =            5
     number of electrons       =       277.00
     number of Kohn-Sham states=          167
     kinetic-energy cutoff     =     120.0000  Ry
     charge density cutoff     =     480.0000  Ry
     scf convergence threshold =      1.0E-03
     mixing beta               =       0.7000
     number of iterations used =            8  TF        mixing
     energy convergence thresh.=      0.0E+00
     force convergence thresh. =      0.0E+00
     Exchange-correlation=  SLA  PW   PBX  PBC
                           (   1   4   3   4   0   0   0)
     nstep                     =           20

     celldm(1)=  17.650041  celldm(2)=   0.000000  celldm(3)=   0.000000
     celldm(4)=   0.000000  celldm(5)=   0.000000  celldm(6)=   0.000000

     crystal axes: (cart. coord. in units of alat)
               a(1) = (   1.000000   0.000000   0.000000 )
               a(2) = (   0.000000   0.929336   0.000000 )
               a(3) = (   0.000000   0.000000   1.086698 )

     reciprocal axes: (cart. coord. in units 2 pi/alat)
               b(1) = (  1.000000  0.000000  0.000000 )
               b(2) = (  0.000000  1.076037  0.000000 )
               b(3) = (  0.000000  0.000000  0.920219 )

     PseudoPot. # 1 for Hf read from file:
     q-e/pseudo/hf_pbe_v1.uspp.F.UPF
     MD5 check sum: 8ee9378dfe14276e333edf04c5e4aa26
     Pseudo is Ultrasoft + core correction, Zval = 12.0
     Generated by new atomic code, or converted to UPF format
     Using radial grid of  921 points,  8 beta functions with:
                l(1) =   0
                l(2) =   0
                l(3) =   0
                l(4) =   1
                l(5) =   1
                l(6) =   2
                l(7) =   2
                l(8) =   3
     Q(r) pseudized with  6 coefficients,  rinner =    1.200   1.200   1.200
                                                       1.200   1.200   1.200
                                                       1.200

     PseudoPot. # 2 for Nb read from file:
     q-e/pseudo/nb_pbe_v1.uspp.F.UPF
     MD5 check sum: 573aab8a2fa660278ed4a62cd769473f
     Pseudo is Ultrasoft + core correction, Zval = 13.0
     Generated by new atomic code, or converted to UPF format
     Using radial grid of  887 points,  6 beta functions with:
                l(1) =   0
                l(2) =   0
                l(3) =   1
                l(4) =   1
                l(5) =   2
                l(6) =   2
     Q(r) pseudized with  6 coefficients,  rinner =    1.000   1.000   1.000
                                                       1.000   1.000

     PseudoPot. # 3 for Ta read from file:
     q-e/pseudo/ta_pbe_v1.uspp.F.UPF
     MD5 check sum: f8bbe9446314a3b8ea5d9f3e3836c939
     Pseudo is Ultrasoft + core correction, Zval = 13.0
     Generated by new atomic code, or converted to UPF format
     Using radial grid of  921 points,  7 beta functions with:
                l(1) =   0
                l(2) =   0
                l(3) =   1
                l(4) =   1
                l(5) =   2
                l(6) =   2
                l(7) =   3
     Q(r) pseudized with  6 coefficients,  rinner =    1.300   1.300   1.300
                                                       1.300   1.300   1.300
                                                       1.300

     PseudoPot. # 4 for Zr read from file:
     q-e/pseudo/zr_pbe_v1.uspp.F.UPF
     MD5 check sum: 5db81b1e868ab7776c4564c113de050b
     Pseudo is Ultrasoft + core correction, Zval = 12.0
     Generated by new atomic code, or converted to UPF format
     Using radial grid of  887 points,  6 beta functions with:
                l(1) =   0
                l(2) =   0
                l(3) =   1
                l(4) =   1
                l(5) =   2
                l(6) =   2
     Q(r) pseudized with  6 coefficients,  rinner =    1.200   1.200   1.200
                                                       1.200   1.200

     PseudoPot. # 5 for H  read from file:
     q-e/pseudo/h_pbe_v1.4.uspp.F.UPF
     MD5 check sum: 761ae9a214b05c3daf00ab9f6b793d6f
     Pseudo is Ultrasoft, Zval =  1.0
     Generated by new atomic code, or converted to UPF format
     Using radial grid of  615 points,  2 beta functions with:
                l(1) =   0
                l(2) =   0
     Q(r) pseudized with  8 coefficients,  rinner =    0.700

     atomic species   valence    mass     pseudopotential
        Hf            12.00   178.49000     Hf( 1.00)
        Nb            13.00    92.90637     Nb( 1.00)
        Ta            13.00   180.94788     Ta( 1.00)
        Zr            12.00    91.22400     Zr( 1.00)
        H              1.00     2.01400     H ( 1.00)

     Starting magnetic structure
     atomic species   magnetization
        Hf           0.000
        Nb           0.000
        Ta           0.000
        Zr           0.000
        H            0.000

     No symmetry found

   Cartesian axes

     site n.     atom                  positions (alat units)
         1           Hf  tau(   1) = (   0.2858672   0.3026898   0.7070626  )
         2           Hf  tau(   2) = (   0.1341532   0.1377178   0.5415917  )
         3           Hf  tau(   3) = (   0.1344204   0.7911996   0.5447610  )
         4           Hf  tau(   4) = (   0.4375813   0.1377178   0.5415917  )
         5           Hf  tau(   5) = (   0.4373140   0.7911996   0.5447610  )
         6           Nb  tau(   6) = (   0.2858672   0.2994572   0.3764008  )
         7           Nb  tau(   7) = (   0.2858672   0.6291626   0.7103852  )
         8           Ta  tau(   8) = (   0.1294832   0.4647675   0.5429471  )
         9           Ta  tau(   9) = (   0.4422513   0.4647675   0.5429471  )
        10           Ta  tau(  10) = (   0.1399628   0.1406984   0.2204260  )
        11           Ta  tau(  11) = (   0.1394848   0.1400847   0.8666573  )
        12           Ta  tau(  12) = (   0.1396156   0.7897030   0.2190832  )
        13           Ta  tau(  13) = (   0.1400119   0.7885528   0.8657390  )
        14           Ta  tau(  14) = (   0.4317717   0.1406984   0.2204260  )
        15           Ta  tau(  15) = (   0.4322496   0.1400847   0.8666573  )
        16           Ta  tau(  16) = (   0.4321189   0.7897030   0.2190832  )
        17           Ta  tau(  17) = (   0.4317226   0.7885528   0.8657390  )
        18           Zr  tau(  18) = (   0.2858672   0.6280820   0.3776642  )
        19           Zr  tau(  19) = (   0.1331729   0.4627493   0.2141328  )
        20           Zr  tau(  20) = (   0.1328036   0.4661802   0.8725649  )
        21           Zr  tau(  21) = (   0.4385616   0.4627493   0.2141328  )
        22           Zr  tau(  22) = (   0.4389309   0.4661802   0.8725649  )
        23           H   tau(  23) = (   0.5493177   0.4646681   0.7285044  )

     number of k points=     1  Gaussian smearing, width (Ry)=  0.0220
                       cart. coord. in units 2pi/alat
        k(    1) = (   0.0000000   0.0000000   0.0000000), wk =   1.0000000

     Check: negative core charge=   -0.000002
     Generating pointlists ...
     new r_m :   0.1117 (alat units)  1.9717 (a.u.) for type    1
     new r_m :   0.1098 (alat units)  1.9374 (a.u.) for type    2
     new r_m :   0.0884 (alat units)  1.5597 (a.u.) for type    3
     new r_m :   0.0749 (alat units)  1.3214 (a.u.) for type    4
     new r_m :   0.0749 (alat units)  1.3214 (a.u.) for type    5

     Initial potential from superposition of free atoms

     starting charge     266.9726, renormalised to     277.0000

     negative rho (up, down):  9.216E-01 9.216E-01
     Starting wfcs are  287 randomized atomic wfcs

     Self-consistent Calculation

     iteration #  1     ecut=   120.00 Ry     beta= 0.70
     Davidson diagonalization with overlap
     ethr =  1.00E-02,  avg # of iterations =  2.0

     negative rho (up, down):  9.973E-01 9.968E-01

     total energy              =   -2930.56885715 Ry
     estimated scf accuracy    <     276.33954164 Ry

     total magnetization       =    -0.00 Bohr mag/cell
     absolute magnetization    =     0.09 Bohr mag/cell

[...]

     Magnetic moment per site  (integrated on atomic sphere of radius R)
     atom   1 (R=0.112)  charge=  9.4654   -0.0002
     atom   2 (R=0.112)  charge=  9.0575   -0.0001
     atom   3 (R=0.112)  charge=  9.0571   -0.0000
     atom   4 (R=0.112)  charge=  9.0619   -0.0003
     atom   5 (R=0.112)  charge=  9.0607   -0.0002
     atom   6 (R=0.110)  charge= 10.3472    0.0005
     atom   7 (R=0.110)  charge= 10.3524   -0.0001
     atom   8 (R=0.088)  charge=  8.1326   -0.0001
     atom   9 (R=0.088)  charge=  8.1278    0.0002
     atom  10 (R=0.088)  charge=  8.1104   -0.0007
     atom  11 (R=0.088)  charge=  8.1069   -0.0001
     atom  12 (R=0.088)  charge=  8.1100   -0.0025
     atom  13 (R=0.088)  charge=  8.1083   -0.0006
     atom  14 (R=0.088)  charge=  8.1078   -0.0007
     atom  15 (R=0.088)  charge=  8.1086    0.0002
     atom  16 (R=0.088)  charge=  8.1073   -0.0007
     atom  17 (R=0.088)  charge=  8.1123   -0.0004
     atom  18 (R=0.075)  charge=  5.8238    0.0000
     atom  19 (R=0.075)  charge=  5.7436   -0.0012
     atom  20 (R=0.075)  charge=  5.7431   -0.0001
     atom  21 (R=0.075)  charge=  5.7422   -0.0007
     atom  22 (R=0.075)  charge=  5.7565    0.0001
     atom  23 (R=0.075)  charge=  0.9831   -0.0000

     End of self-consistent calculation

 ------ SPIN UP ------------

          k = 0.0000 0.0000 0.0000 ( 61588 PWs)   bands (ev):

   -60.7735 -60.7694 -60.7256 -60.7240 -60.6909 -60.6902 -60.6471 -60.6409
   -60.5543 -60.5010 -54.3781 -54.3324 -54.2533 -54.2079 -52.7094 -46.2580
   -46.2305 -41.5975 -41.5927 -41.4918 -41.2319 -39.7675 -27.7745 -27.7661
   -27.6836 -27.6828 -27.5893 -27.5776 -27.4597 -27.4464 -27.4255 -27.3302
   -27.3136 -27.2606 -27.2552 -27.2424 -27.2183 -27.1778 -27.1652 -27.1527
   -27.1294 -27.1170 -27.0604 -27.0367 -26.9469 -26.9454 -26.9390 -26.9257
   -26.8795 -26.8702 -26.8445 -26.8433 -24.1628 -23.9552 -23.6482 -23.5682
   -23.3080 -23.1768 -23.1506 -23.0558 -22.9241 -22.8531 -22.8398 -22.6210
   -22.4914 -22.4356 -22.3792 -22.3427 -22.2607 -22.2205 -21.7500 -21.7087
   -21.6297 -20.1660 -19.8369 -19.8076 -19.7789 -19.5866 -19.5700 -19.5468
[...]

     convergence has been achieved in   4 iterations

     negative rho (up, down):  9.082E-01 9.082E-01

     Forces acting on atoms (cartesian axes, Ry/au):

     atom    1 type  1   force =    -0.00721914   -0.02087568    0.00049899
     atom    2 type  1   force =    -0.11449889   -0.01510166   -0.00696531
     atom    3 type  1   force =    -0.11174592    0.01230823   -0.00099298
     atom    4 type  1   force =     0.11261607   -0.02520367   -0.00842867
     atom    5 type  1   force =     0.11186199    0.02430123   -0.00287051
     atom    6 type  2   force =    -0.00855684   -0.01746511    0.00382677
     atom    7 type  2   force =    -0.00853809    0.01072627   -0.01294415
     atom    8 type  3   force =    -0.10448137    0.00279347   -0.00942001
     atom    9 type  3   force =     0.13430047    0.00026769    0.03620800
     atom   10 type  3   force =    -0.02241597   -0.03243269   -0.06049502
     atom   11 type  3   force =    -0.01624364   -0.03356467    0.06186890
     atom   12 type  3   force =    -0.01702130    0.03762534   -0.05559045
     atom   13 type  3   force =    -0.01563524    0.02797086    0.06568666
     atom   14 type  3   force =     0.02279061   -0.03150934   -0.05792365
     atom   15 type  3   force =     0.01338442   -0.04244552    0.05898160
     atom   16 type  3   force =     0.01758447    0.03629600   -0.05277655
     atom   17 type  3   force =     0.01108314    0.03604583    0.06118895
     atom   18 type  4   force =    -0.01151862    0.02693165   -0.02061280
     atom   19 type  4   force =    -0.12496744   -0.00498779   -0.11692394
     atom   20 type  4   force =    -0.12135826    0.00614968    0.11885414
     atom   21 type  4   force =     0.12314835   -0.00468677   -0.11617003
     atom   22 type  4   force =     0.04641629    0.00972108    0.20444061
     atom   23 type  5   force =     0.09101491   -0.00286443   -0.08944055
     The non-local contrib.  to forces
     atom    1 type  1   force =     0.00345124   -0.01360178    0.02578092
     atom    2 type  1   force =    -0.24388343   -0.16420351    0.01225761
     atom    3 type  1   force =    -0.23803278    0.15990729   -0.03065370
     atom    4 type  1   force =     0.25367422   -0.16713675    0.02916360
     atom    5 type  1   force =     0.24540171    0.16514589   -0.01472544
     atom    6 type  2   force =     0.00484620   -0.03551334   -0.05229859
     atom    7 type  2   force =    -0.00580872    0.05929156    0.05712524
     atom    8 type  3   force =    -0.26988819   -0.00076232   -0.00272011
     atom    9 type  3   force =     0.27812859    0.00099126    0.02393939
     atom   10 type  3   force =    -0.21089248    0.00472569   -0.20772998
     atom   11 type  3   force =    -0.21895471    0.00475371    0.20174683
     atom   12 type  3   force =    -0.20120296   -0.02051016   -0.17843626
     atom   13 type  3   force =    -0.20664711   -0.00134237    0.21451711
     atom   14 type  3   force =     0.20616299    0.00359226   -0.21590963
     atom   15 type  3   force =     0.23826679    0.01530318    0.18283227
     atom   16 type  3   force =     0.19531298   -0.02029820   -0.18609677
     atom   17 type  3   force =     0.22371041   -0.01085969    0.19414755
     atom   18 type  4   force =     0.00723089    0.04426579   -0.05258988
     atom   19 type  4   force =     0.06459911    0.01017989    0.07736376
     atom   20 type  4   force =     0.05039889   -0.01448924   -0.05472559
     atom   21 type  4   force =    -0.05868802    0.00862925    0.07880791
     atom   22 type  4   force =    -0.05883640   -0.01134228   -0.09674518
     atom   23 type  5   force =    -0.05656433    0.00112963    0.03389974
     The ionic contribution  to forces
     atom    1 type  1   force =    -0.26903471   -4.68774457   13.92884657
     atom    2 type  1   force =   -39.69729632   -6.18078720    0.74207920
     atom    3 type  1   force =   -39.67063145    6.16861943   -0.75138383
     atom    4 type  1   force =    39.57155519   -6.29034841    0.69361758
     atom    5 type  1   force =    39.54547111    6.27600037   -0.79693271
     atom    6 type  2   force =    -0.33096538   -3.88880495  -14.13396042
     atom    7 type  2   force =    -0.28850652    3.69376689   13.85328782
     atom    8 type  3   force =   -52.31827193    0.07134768   -0.06519338
     atom    9 type  3   force =    51.42434902    0.11471763   -0.47906216
     atom   10 type  3   force =   -36.06323896   -2.11436626  -23.01096403
     atom   11 type  3   force =   -35.13844601   -0.88740287   22.03625551
     atom   12 type  3   force =   -35.25054783    0.81829117  -22.06634667
     atom   13 type  3   force =   -36.03647487    2.22058284   23.01455250
     atom   14 type  3   force =    35.98376606   -2.17018841  -23.02776619
     atom   15 type  3   force =    34.88954552   -1.11862581   22.10019068
     atom   16 type  3   force =    35.17189038    0.87290273  -22.08250750
     atom   17 type  3   force =    35.79099840    2.44433522   23.07443422
     atom   18 type  4   force =    -0.31429555    4.67457635  -14.08169975
     atom   19 type  4   force =   -35.93153794    0.95378886  -25.46330190
     atom   20 type  4   force =   -35.89240556   -0.94991942   25.44181564
     atom   21 type  4   force =    35.81260489    0.95205476  -25.65259198
     atom   22 type  4   force =    33.96029399   -0.90954912   26.54389793
     atom   23 type  5   force =     5.05117846   -0.06324692    0.18273285
     The local contribution  to forces
     atom    1 type  1   force =     0.25686843    4.67303405  -13.95107808
     atom    2 type  1   force =    39.84364370    6.32854838   -0.77423419
     atom    3 type  1   force =    39.81383392   -6.31614535    0.77029432
     atom    4 type  1   force =   -39.72908016    6.43147086   -0.74755900
     atom    5 type  1   force =   -39.69610047   -6.41669622    0.79450669
     atom    6 type  2   force =     0.31750319    3.90133745   14.15735943
     atom    7 type  2   force =     0.28511364   -3.73182154  -13.91751622
     atom    8 type  3   force =    52.52160598   -0.06807985    0.04133298
     atom    9 type  3   force =   -51.61066352   -0.11574419    0.46756862
     atom   10 type  3   force =    36.28045227    2.06429246   23.15994336
     atom   11 type  3   force =    35.37298622    0.83529558  -22.17293365
     atom   12 type  3   force =    35.46354029   -0.74745930   22.19030246
     atom   13 type  3   force =    36.25771055   -2.17839092  -23.15978578
     atom   14 type  3   force =   -36.19386451    2.11991658   23.18682950
     atom   15 type  3   force =   -35.14750088    1.04570691  -22.22025804
     atom   16 type  3   force =   -35.37636977   -0.80138909   22.21673277
     atom   17 type  3   force =   -36.03492097   -2.38337595  -23.20367850
     atom   18 type  4   force =     0.29537465   -4.68579181   14.08307069
     atom   19 type  4   force =    35.75879049   -0.96860516   25.26336439
     atom   20 type  4   force =    35.73417923    0.97018718  -25.25575443
     atom   21 type  4   force =   -35.64803273   -0.96541760   25.45211853
     atom   22 type  4   force =   -33.85088730    0.92996665  -26.23395850
     atom   23 type  5   force =    -4.90139559    0.05905958   -0.30286228
     The core correction contribution to forces
     atom    1 type  1   force =     0.00148828    0.00130911   -0.00091676
     atom    2 type  1   force =    -0.01232457   -0.00199651   -0.00004041
     atom    3 type  1   force =    -0.01244189    0.00306290   -0.00227375
     atom    4 type  1   force =     0.01391478   -0.00321721    0.00390933
     atom    5 type  1   force =     0.01433941    0.00394766    0.00164627
     atom    6 type  2   force =    -0.00038979    0.00151215    0.00187537
     atom    7 type  2   force =     0.00036661   -0.00287883   -0.00223356
     atom    8 type  3   force =    -0.03413804    0.00013692   -0.00085191
     atom    9 type  3   force =     0.03220499   -0.00024906    0.00064176
     atom   10 type  3   force =    -0.02154268    0.00897161   -0.01645251
     atom   11 type  3   force =    -0.02396113    0.00944176    0.01719735
     atom   12 type  3   force =    -0.02161402   -0.00942564   -0.01569231
     atom   13 type  3   force =    -0.02229924   -0.00893558    0.01705845
     atom   14 type  3   force =     0.02173466    0.00932896   -0.01615143
     atom   15 type  3   force =     0.02640105    0.01115772    0.01476940
     atom   16 type  3   force =     0.02154559   -0.00949983   -0.01567879
     atom   17 type  3   force =     0.02408320   -0.01019017    0.01517839
     atom   18 type  4   force =    -0.00054182   -0.00223258    0.00211912
     atom   19 type  4   force =    -0.00981206   -0.00001864   -0.00987730
     atom   20 type  4   force =    -0.00875440    0.00041435    0.00902477
     atom   21 type  4   force =     0.00950502    0.00006633   -0.01016870
     atom   22 type  4   force =     0.00474864    0.00033612    0.01415951
     atom   23 type  5   force =     0.00000000    0.00000000    0.00000000
     The Hubbard contrib.    to forces
     atom    1 type  1   force =     0.00000000    0.00000000    0.00000000
     atom    2 type  1   force =     0.00000000    0.00000000    0.00000000
     atom    3 type  1   force =     0.00000000    0.00000000    0.00000000
     atom    4 type  1   force =     0.00000000    0.00000000    0.00000000
     atom    5 type  1   force =     0.00000000    0.00000000    0.00000000
     atom    6 type  2   force =     0.00000000    0.00000000    0.00000000
     atom    7 type  2   force =     0.00000000    0.00000000    0.00000000
     atom    8 type  3   force =     0.00000000    0.00000000    0.00000000
     atom    9 type  3   force =     0.00000000    0.00000000    0.00000000
     atom   10 type  3   force =     0.00000000    0.00000000    0.00000000
     atom   11 type  3   force =     0.00000000    0.00000000    0.00000000
     atom   12 type  3   force =     0.00000000    0.00000000    0.00000000
     atom   13 type  3   force =     0.00000000    0.00000000    0.00000000
     atom   14 type  3   force =     0.00000000    0.00000000    0.00000000
     atom   15 type  3   force =     0.00000000    0.00000000    0.00000000
     atom   16 type  3   force =     0.00000000    0.00000000    0.00000000
     atom   17 type  3   force =     0.00000000    0.00000000    0.00000000
     atom   18 type  4   force =     0.00000000    0.00000000    0.00000000
     atom   19 type  4   force =     0.00000000    0.00000000    0.00000000
     atom   20 type  4   force =     0.00000000    0.00000000    0.00000000
     atom   21 type  4   force =     0.00000000    0.00000000    0.00000000
     atom   22 type  4   force =     0.00000000    0.00000000    0.00000000
     atom   23 type  5   force =     0.00000000    0.00000000    0.00000000
     The SCF correction term to forces
     atom    1 type  1   force =     0.00019647    0.00605799   -0.00294585
     atom    2 type  1   force =    -0.00444942    0.00326765    0.01216029
     atom    3 type  1   force =    -0.00428486   -0.00320557    0.01221180
     atom    4 type  1   force =     0.00274089    0.00395831    0.01162764
     atom    5 type  1   force =     0.00293908   -0.00416600    0.01182248
     atom    6 type  2   force =     0.00063780    0.00393406    0.03003879
     atom    7 type  2   force =     0.00048575   -0.00770133   -0.00441962
     atom    8 type  3   force =    -0.00360034    0.00008149    0.01720022
     atom    9 type  3   force =     0.01047024    0.00048252    0.02230820
     atom   10 type  3   force =    -0.00700527    0.00387428    0.01389596
     atom   11 type  3   force =    -0.00767917    0.00427762   -0.02120933
     atom   12 type  3   force =    -0.00700793   -0.00334026    0.01377015
     atom   13 type  3   force =    -0.00773571   -0.00401263   -0.02146781
     atom   14 type  3   force =     0.00518026    0.00577174    0.01426192
     atom   15 type  3   force =     0.00686078    0.00394294   -0.01936489
     atom   16 type  3   force =     0.00539414   -0.00548914    0.01396156
     atom   17 type  3   force =     0.00740095   -0.00393310   -0.01970490
     atom   18 type  4   force =     0.00090205   -0.00395562    0.02767482
     atom   19 type  4   force =    -0.00681818   -0.00040227    0.01471492
     atom   20 type  4   force =    -0.00458757   -0.00011271   -0.02231844
     atom   21 type  4   force =     0.00794802   -0.00008904    0.01485204
     atom   22 type  4   force =    -0.00871380    0.00024018   -0.02372533
     atom   23 type  5   force =    -0.00201479    0.00012376   -0.00402305

     Total force =     0.522595     Total SCF correction =     0.090176
     SCF correction compared to forces is large: reduce conv_thr to get better values

     Computing stress (Cartesian axis) and pressure

     negative rho (up, down):  9.082E-01 9.082E-01
          total   stress  (Ry/bohr**3)                   (kbar)     P=       86.32
   0.00068379  -0.00000170  -0.00002245          100.59       -0.25       -3.30
  -0.00000170   0.00066786  -0.00001032           -0.25       98.25       -1.52
  -0.00002245  -0.00001032   0.00040871           -3.30       -1.52       60.12

     Entering Dynamics:    iteration =    20
                           time      =   0.0041 pico-seconds

ATOMIC_POSITIONS (angstrom)
Hf            2.6711860322        2.8268892283        6.6061516045
Hf            1.2529158398        1.2861330648        5.0605764055
Hf            1.2554176902        7.3899268529        5.0902579482
Hf            4.0895820806        1.2860957411        5.0605708798
Hf            4.0870891426        7.3899555057        5.0902390844
Nb            2.6712908127        2.7966248378        3.5179588507
Nb            2.6711376499        5.8766582527        6.6369039310
Ta            1.2093001149        4.3409617446        5.0732945756
Ta            4.1056962356        4.3411704297        5.0274220528
Ta            1.3082342159        1.3137373580        2.0603072014
Ta            1.3038403656        1.3079932924        8.0974120754
Ta            1.3050384789        7.3762592918        2.0478071906
Ta            1.3087791918        7.3654099712        8.0888666835
Ta            4.0342458777        1.3138104394        2.0603059612
Ta            4.0386631199        1.3079725675        8.0973758828
Ta            4.0374492009        7.3762034627        2.0478116852
Ta            4.0337141052        7.3654329609        8.0888429623
Zr            2.6712776230        5.8667529760        3.5293844566
Zr            1.2422127306        4.3219712548        1.9995878753
Zr            1.2387166324        4.3542396090        8.1545186790
Zr            4.1003615841        4.3219534311        1.9993964148
Zr            4.1037867247        4.3542928044        8.1546287819
H             5.5331988569        4.3216462549        7.3280565206

     kinetic energy (Ekin) =           8.08497833 Ry
     temperature           =       38682.33687472 K
     Ekin + Etot (const)   =       -2934.96554089 Ry
     Ions kinetic stress =          142.79 (kbar)
                                    122.44          -1.85         193.28
                                     -1.85           0.04          -2.92
                                    193.28          -2.92         305.89

     Linear momentum :    0.0000000000   -0.0000000000   -0.0000000000

     The maximum number of steps has been reached.

     End of molecular dynamics calculation

     diffusion coefficients :
     atom     1   D =       0.00000003 cm^2/s
     atom     2   D =       0.00000002 cm^2/s
     atom     3   D =       0.00000002 cm^2/s
     atom     4   D =       0.00000005 cm^2/s
     atom     5   D =       0.00000005 cm^2/s
     atom     6   D =       0.00000003 cm^2/s
     atom     7   D =       0.00000002 cm^2/s
     atom     8   D =       0.00000002 cm^2/s
     atom     9   D =       0.00001038 cm^2/s
     atom    10   D =       0.00000001 cm^2/s
     atom    11   D =       0.00000004 cm^2/s
     atom    12   D =       0.00000002 cm^2/s
     atom    13   D =       0.00000004 cm^2/s
     atom    14   D =       0.00000002 cm^2/s
     atom    15   D =       0.00000004 cm^2/s
     atom    16   D =       0.00000002 cm^2/s
     atom    17   D =       0.00000004 cm^2/s
     atom    18   D =       0.00000002 cm^2/s
     atom    19   D =       0.00000001 cm^2/s
     atom    20   D =       0.00000010 cm^2/s
     atom    21   D =       0.00000007 cm^2/s
     atom    22   D =       0.00000017 cm^2/s
     atom    23   D =       0.00179144 cm^2/s

     < D > =       0.00007838 cm^2/s

     Writing all to output data dir outdir/pwscf.save/

     General routines

     Parallel routines

   This run was terminated on:  18:14:41  13Jun2023

   JOB DONE.