     Program PWSCF v.7.2 starts on 12Jun2023 at 20:22: 7

     Reading input from md_data/md_Hf5Nb2Ta10Zr5H_20steps_100eV_incident45_polar30.in
Warning: card &CELL ignored
Warning: card / ignored

     Current dimensions of program PWSCF are:
     Max number of different atomic species (ntypx) = 10
     Max number of k-points (npk) =  40000
     Max angular momentum in pseudopotentials (lmaxx) =  4

     File outdir/pwscf.md deleted, as requested

     gamma-point specific algorithms are used

     R & G space division:  proc/nbgrp/npool/nimage =      42
     Subspace diagonalization in iterative solution of the eigenvalue problem:
     one sub-group per band group will be used

     Using Slab Decomposition

     bravais-lattice index     =            0
     lattice parameter (alat)  =      17.6500  a.u.
     unit-cell volume          =    5552.8853 (a.u.)^3
     number of atoms/cell      =           23
     number of atomic types    =            5
     number of electrons       =       277.00
     number of Kohn-Sham states=          167
     kinetic-energy cutoff     =     120.0000  Ry
     charge density cutoff     =     480.0000  Ry
     scf convergence threshold =      1.0E-03
     mixing beta               =       0.7000
     number of iterations used =            8  TF        mixing
     energy convergence thresh.=      0.0E+00
     force convergence thresh. =      0.0E+00
     Exchange-correlation=  SLA  PW   PBX  PBC
                           (   1   4   3   4   0   0   0)
     nstep                     =           20

     celldm(1)=  17.650041  celldm(2)=   0.000000  celldm(3)=   0.000000
     celldm(4)=   0.000000  celldm(5)=   0.000000  celldm(6)=   0.000000

     crystal axes: (cart. coord. in units of alat)
               a(1) = (   1.000000   0.000000   0.000000 )
               a(2) = (   0.000000   0.929336   0.000000 )
               a(3) = (   0.000000   0.000000   1.086698 )

     reciprocal axes: (cart. coord. in units 2 pi/alat)
               b(1) = (  1.000000  0.000000  0.000000 )
               b(2) = (  0.000000  1.076037  0.000000 )
               b(3) = (  0.000000  0.000000  0.920219 )

     PseudoPot. # 1 for Hf read from file:
     q-e/pseudo/hf_pbe_v1.uspp.F.UPF
     MD5 check sum: 8ee9378dfe14276e333edf04c5e4aa26
     Pseudo is Ultrasoft + core correction, Zval = 12.0
     Generated by new atomic code, or converted to UPF format
     Using radial grid of  921 points,  8 beta functions with:
                l(1) =   0
                l(2) =   0
                l(3) =   0
                l(4) =   1
                l(5) =   1
                l(6) =   2
                l(7) =   2
                l(8) =   3
     Q(r) pseudized with  6 coefficients,  rinner =    1.200   1.200   1.200
                                                       1.200   1.200   1.200
                                                       1.200

     PseudoPot. # 2 for Nb read from file:
     q-e/pseudo/nb_pbe_v1.uspp.F.UPF
     MD5 check sum: 573aab8a2fa660278ed4a62cd769473f
     Pseudo is Ultrasoft + core correction, Zval = 13.0
     Generated by new atomic code, or converted to UPF format
     Using radial grid of  887 points,  6 beta functions with:
                l(1) =   0
                l(2) =   0
                l(3) =   1
                l(4) =   1
                l(5) =   2
                l(6) =   2
     Q(r) pseudized with  6 coefficients,  rinner =    1.000   1.000   1.000
                                                       1.000   1.000

     PseudoPot. # 3 for Ta read from file:
     q-e/pseudo/ta_pbe_v1.uspp.F.UPF
     MD5 check sum: f8bbe9446314a3b8ea5d9f3e3836c939
     Pseudo is Ultrasoft + core correction, Zval = 13.0
     Generated by new atomic code, or converted to UPF format
     Using radial grid of  921 points,  7 beta functions with:
                l(1) =   0
                l(2) =   0
                l(3) =   1
                l(4) =   1
                l(5) =   2
                l(6) =   2
                l(7) =   3
     Q(r) pseudized with  6 coefficients,  rinner =    1.300   1.300   1.300
                                                       1.300   1.300   1.300
                                                       1.300

     PseudoPot. # 4 for Zr read from file:
     q-e/pseudo/zr_pbe_v1.uspp.F.UPF
     MD5 check sum: 5db81b1e868ab7776c4564c113de050b
     Pseudo is Ultrasoft + core correction, Zval = 12.0
     Generated by new atomic code, or converted to UPF format
     Using radial grid of  887 points,  6 beta functions with:
                l(1) =   0
                l(2) =   0
                l(3) =   1
                l(4) =   1
                l(5) =   2
                l(6) =   2
     Q(r) pseudized with  6 coefficients,  rinner =    1.200   1.200   1.200
                                                       1.200   1.200

     PseudoPot. # 5 for H  read from file:
     q-e/pseudo/h_pbe_v1.4.uspp.F.UPF
     MD5 check sum: 761ae9a214b05c3daf00ab9f6b793d6f
     Pseudo is Ultrasoft, Zval =  1.0
     Generated by new atomic code, or converted to UPF format
     Using radial grid of  615 points,  2 beta functions with:
                l(1) =   0
                l(2) =   0
     Q(r) pseudized with  8 coefficients,  rinner =    0.700

     atomic species   valence    mass     pseudopotential
        Hf            12.00   178.49000     Hf( 1.00)
        Nb            13.00    92.90637     Nb( 1.00)
        Ta            13.00   180.94788     Ta( 1.00)
        Zr            12.00    91.22400     Zr( 1.00)
        H              1.00     2.01400     H ( 1.00)

     Starting magnetic structure
     atomic species   magnetization
        Hf           0.000
        Nb           0.000
        Ta           0.000
        Zr           0.000
        H            0.000

     No symmetry found

   Cartesian axes

     site n.     atom                  positions (alat units)
         1           Hf  tau(   1) = (   0.2858672   0.3026898   0.7070626  )
         2           Hf  tau(   2) = (   0.1341532   0.1377178   0.5415917  )
         3           Hf  tau(   3) = (   0.1344204   0.7911996   0.5447610  )
         4           Hf  tau(   4) = (   0.4375813   0.1377178   0.5415917  )
         5           Hf  tau(   5) = (   0.4373140   0.7911996   0.5447610  )
         6           Nb  tau(   6) = (   0.2858672   0.2994572   0.3764008  )
         7           Nb  tau(   7) = (   0.2858672   0.6291626   0.7103852  )
         8           Ta  tau(   8) = (   0.1294832   0.4647675   0.5429471  )
         9           Ta  tau(   9) = (   0.4422513   0.4647675   0.5429471  )
        10           Ta  tau(  10) = (   0.1399628   0.1406984   0.2204260  )
        11           Ta  tau(  11) = (   0.1394848   0.1400847   0.8666573  )
        12           Ta  tau(  12) = (   0.1396156   0.7897030   0.2190832  )
        13           Ta  tau(  13) = (   0.1400119   0.7885528   0.8657390  )
        14           Ta  tau(  14) = (   0.4317717   0.1406984   0.2204260  )
        15           Ta  tau(  15) = (   0.4322496   0.1400847   0.8666573  )
        16           Ta  tau(  16) = (   0.4321189   0.7897030   0.2190832  )
        17           Ta  tau(  17) = (   0.4317226   0.7885528   0.8657390  )
        18           Zr  tau(  18) = (   0.2858672   0.6280820   0.3776642  )
        19           Zr  tau(  19) = (   0.1331729   0.4627493   0.2141328  )
        20           Zr  tau(  20) = (   0.1328036   0.4661802   0.8725649  )
        21           Zr  tau(  21) = (   0.4385616   0.4627493   0.2141328  )
        22           Zr  tau(  22) = (   0.4389309   0.4661802   0.8725649  )
        23           H   tau(  23) = (   0.5936660   0.5957971   0.6187673  )

     number of k points=     1  Gaussian smearing, width (Ry)=  0.0220
                       cart. coord. in units 2pi/alat
        k(    1) = (   0.0000000   0.0000000   0.0000000), wk =   1.0000000

     Check: negative core charge=   -0.000002
     Generating pointlists ...
     new r_m :   0.1076 (alat units)  1.9000 (a.u.) for type    1
     new r_m :   0.1098 (alat units)  1.9374 (a.u.) for type    2
     new r_m :   0.0883 (alat units)  1.5589 (a.u.) for type    3
     new r_m :   0.1112 (alat units)  1.9625 (a.u.) for type    4
     new r_m :   0.0883 (alat units)  1.5589 (a.u.) for type    5

     Initial potential from superposition of free atoms

     starting charge     266.9726, renormalised to     277.0000

     negative rho (up, down):  9.217E-01 9.217E-01
     Starting wfcs are  287 randomized atomic wfcs

     Self-consistent Calculation

     iteration #  1     ecut=   120.00 Ry     beta= 0.70
     Davidson diagonalization with overlap
     ethr =  1.00E-02,  avg # of iterations =  2.0

     negative rho (up, down):  9.948E-01 9.944E-01

     total energy              =   -2930.55383767 Ry
     estimated scf accuracy    <     276.97364830 Ry

     total magnetization       =    -0.00 Bohr mag/cell
     absolute magnetization    =     0.09 Bohr mag/cell

[...]

     iteration # 12     ecut=   120.00 Ry     beta= 0.70
     Davidson diagonalization with overlap
     c_bands:  1 eigenvalues not converged
     ethr =  2.73E-06,  avg # of iterations = 19.5

[...]

     Magnetic moment per site  (integrated on atomic sphere of radius R)
     atom   1 (R=0.108)  charge=  9.1665    0.0000
     atom   2 (R=0.108)  charge=  8.8223   -0.0001
     atom   3 (R=0.108)  charge=  8.8213    0.0000
     atom   4 (R=0.108)  charge=  8.8221    0.0002
     atom   5 (R=0.108)  charge=  8.8164    0.0001
     atom   6 (R=0.110)  charge= 10.3492    0.0002
     atom   7 (R=0.110)  charge= 10.3526   -0.0001
     atom   8 (R=0.088)  charge=  8.1250    0.0001
     atom   9 (R=0.088)  charge=  8.1226    0.0003
     atom  10 (R=0.088)  charge=  8.1060   -0.0000
     atom  11 (R=0.088)  charge=  8.1030    0.0004
     atom  12 (R=0.088)  charge=  8.1062   -0.0003
     atom  13 (R=0.088)  charge=  8.1020    0.0002
     atom  14 (R=0.088)  charge=  8.1055    0.0010
     atom  15 (R=0.088)  charge=  8.1011    0.0013
     atom  16 (R=0.088)  charge=  8.1057   -0.0002
     atom  17 (R=0.088)  charge=  8.1086    0.0012
     atom  18 (R=0.111)  charge=  9.4534    0.0002
     atom  19 (R=0.111)  charge=  8.9984   -0.0001
     atom  20 (R=0.111)  charge=  8.9949   -0.0003
     atom  21 (R=0.111)  charge=  8.9973    0.0008
     atom  22 (R=0.111)  charge=  8.9979    0.0004
     atom  23 (R=0.088)  charge=  1.0020   -0.0000

     End of self-consistent calculation

 ------ SPIN UP ------------

          k = 0.0000 0.0000 0.0000 ( 61588 PWs)   bands (ev):

   -60.7868 -60.7825 -60.7452 -60.7382 -60.7075 -60.7024 -60.6634 -60.6581
   -60.5463 -60.4310 -54.3723 -54.3203 -54.2463 -54.1950 -52.7048 -46.2957
   -46.2630 -41.6629 -41.6387 -41.5675 -41.5376 -39.8072 -27.7881 -27.7825
   -27.7010 -27.6971 -27.6032 -27.5958 -27.4737 -27.4656 -27.4002 -27.3395
   -27.3166 -27.2782 -27.2664 -27.2473 -27.2314 -27.1812 -27.1709 -27.1605
   -27.1127 -27.0816 -27.0346 -26.9697 -26.9646 -26.9592 -26.9526 -26.9383
   -26.8942 -26.8889 -26.8616 -26.8581 -24.1625 -23.9463 -23.6553 -23.5529
   -23.3077 -23.1815 -23.1549 -23.0570 -22.9253 -22.8457 -22.8238 -22.5986
[...]

     convergence has been achieved in   4 iterations

     negative rho (up, down):  9.091E-01 9.091E-01

     Forces acting on atoms (cartesian axes, Ry/au):

     atom    1 type  1   force =    -0.00848085   -0.02692717    0.01572481
     atom    2 type  1   force =    -0.11765474   -0.01380515    0.00405964
     atom    3 type  1   force =    -0.11745692    0.00994848    0.01146609
     atom    4 type  1   force =     0.11722279   -0.00964500    0.00265618
     atom    5 type  1   force =     0.14206147   -0.01221916    0.01439474
     atom    6 type  2   force =    -0.01668120   -0.02207893   -0.00202777
     atom    7 type  2   force =    -0.02255805    0.00751937   -0.01610825
     atom    8 type  3   force =    -0.10905826    0.00310471   -0.00376081
     atom    9 type  3   force =     0.15949366    0.03958270    0.01522099
     atom   10 type  3   force =    -0.02008921   -0.02695528   -0.06063075
     atom   11 type  3   force =    -0.01912552   -0.03472225    0.05320471
     atom   12 type  3   force =    -0.01845575    0.03275978   -0.05515862
     atom   13 type  3   force =    -0.01457124    0.02963798    0.05652116
     atom   14 type  3   force =     0.02307747   -0.02895423   -0.06065952
     atom   15 type  3   force =     0.01979968   -0.03664713    0.05517922
     atom   16 type  3   force =     0.02022630    0.03650145   -0.05436201
     atom   17 type  3   force =     0.02101480    0.04252441    0.05600886
     atom   18 type  4   force =    -0.00573765    0.02080165   -0.00836300
     atom   19 type  4   force =    -0.12546961   -0.00480515   -0.11590114
     atom   20 type  4   force =    -0.12694232    0.00677910    0.11261778
     atom   21 type  4   force =     0.12471009   -0.00745612   -0.11897142
     atom   22 type  4   force =     0.13869844    0.00017169    0.10929622
     atom   23 type  5   force =    -0.04402337   -0.00511576   -0.01040709
     The non-local contrib.  to forces
     atom    1 type  1   force =     0.00246118   -0.00993444    0.02628278
     atom    2 type  1   force =    -0.25270907   -0.15738284    0.01664528
     atom    3 type  1   force =    -0.24057510    0.15200542   -0.01592342
     atom    4 type  1   force =     0.24990341   -0.16078894    0.02553315
     atom    5 type  1   force =     0.22232607    0.15321294   -0.00725787
     atom    6 type  2   force =     0.00678667   -0.04807504   -0.05690481
     atom    7 type  2   force =    -0.03047794    0.06995001    0.06110086
     atom    8 type  3   force =    -0.26701447    0.00891278    0.00519038
     atom    9 type  3   force =     0.22697100    0.00226481    0.01864508
     atom   10 type  3   force =    -0.20907129    0.00689408   -0.20306932
     atom   11 type  3   force =    -0.20936774    0.00061377    0.19667114
     atom   12 type  3   force =    -0.20866966   -0.02277152   -0.17688189
     atom   13 type  3   force =    -0.21138827   -0.00459244    0.19818556
     atom   14 type  3   force =     0.20701866    0.00391169   -0.21640569
     atom   15 type  3   force =     0.21393371    0.00617426    0.19249741
     atom   16 type  3   force =     0.20412918   -0.02034542   -0.18680164
     atom   17 type  3   force =     0.25954528   -0.03463939    0.15505753
     atom   18 type  4   force =    -0.00780076    0.05555503   -0.05831524
     atom   19 type  4   force =     0.05953343    0.00774887    0.07056708
     atom   20 type  4   force =     0.05673879   -0.02019497   -0.06389843
     atom   21 type  4   force =    -0.06229487    0.01115465    0.07372341
     atom   22 type  4   force =    -0.06502455   -0.01116384   -0.06834734
     atom   23 type  5   force =    -0.02112937   -0.00072025   -0.00668524
     The ionic contribution  to forces
     atom    1 type  1   force =    -0.21960173   -4.73942860   14.30960994
     atom    2 type  1   force =   -39.71173789   -6.16257417    0.75783457
     atom    3 type  1   force =   -39.61674608    6.16835780   -0.76105240
     atom    4 type  1   force =    39.59133334   -6.27283483    0.75317599
     atom    5 type  1   force =    38.99812147    6.46671869   -1.02140321
     atom    6 type  2   force =    -0.35135694   -3.84623684  -14.31492228
     atom    7 type  2   force =    -0.28344634    3.55995951   14.01400647
     atom    8 type  3   force =   -52.32504424    0.07801858   -0.07675175
     atom    9 type  3   force =    51.22783175   -0.01457840   -0.22343218
     atom   10 type  3   force =   -36.04919937   -2.08738057  -23.07235984
     atom   11 type  3   force =   -35.11122364   -0.82183078   22.09070170
     atom   12 type  3   force =   -35.21563930    0.80298578  -22.12548566
     atom   13 type  3   force =   -35.99403566    2.20341615   23.08920600
     atom   14 type  3   force =    35.98188729   -2.11267846  -23.13245863
     atom   15 type  3   force =    35.01157363   -0.80017376   22.15361658
     atom   16 type  3   force =    35.12319352    0.82848048  -22.19308439
     atom   17 type  3   force =    35.66761529    2.36071487   23.34013922
     atom   18 type  4   force =    -0.16353968    4.50628257  -14.04843369
     atom   19 type  4   force =   -35.88302816    0.94646180  -25.52074075
     atom   20 type  4   force =   -35.82075168   -0.98818685   25.50880544
     atom   21 type  4   force =    35.81330288    0.95842652  -25.66338637
     atom   22 type  4   force =    35.58021839   -1.13149389   25.65904145
     atom   23 type  5   force =     3.75027315    0.09757439    0.47737379
     The local contribution  to forces
     atom    1 type  1   force =     0.20316024    4.71972734  -14.30572677
     atom    2 type  1   force =    39.85699919    6.31130346   -0.74855093
     atom    3 type  1   force =    39.74919469   -6.31761868    0.81351038
     atom    4 type  1   force =   -39.73637757    6.42459473   -0.75623723
     atom    5 type  1   force =   -39.08015194   -6.63986063    1.06682449
     atom    6 type  2   force =     0.32096569    3.88066414   14.39455132
     atom    7 type  2   force =     0.27854485   -3.62002772  -14.07683385
     atom    8 type  3   force =    52.51112741   -0.08367393    0.08711500
     atom    9 type  3   force =   -51.33216759    0.05122964    0.23668107
     atom   10 type  3   force =    36.25513331    2.06131739   23.23505537
     atom   11 type  3   force =    35.32318756    0.77504849  -22.26025961
     atom   12 type  3   force =    35.42428281   -0.75155685   22.26712991
     atom   13 type  3   force =    36.20701647   -2.15753533  -23.25748427
     atom   14 type  3   force =   -36.18266243    2.08076723   23.30794169
     atom   15 type  3   force =   -35.23026369    0.74920750  -22.31505155
     atom   16 type  3   force =   -35.32392719   -0.77274825   22.34642444
     atom   17 type  3   force =   -35.92928282   -2.26978867  -23.46244293
     atom   18 type  4   force =     0.16034483   -4.54789088   14.12109755
     atom   19 type  4   force =    35.70626469   -0.96094510   25.34962343
     atom   20 type  4   force =    35.64296684    1.01454218  -25.35072674
     atom   21 type  4   force =   -35.63772146   -0.97638313   25.48169828
     atom   22 type  4   force =   -35.38714867    1.13834069  -25.49486148
     atom   23 type  5   force =    -3.77173179   -0.10019709   -0.47707680
     The core correction contribution to forces
     atom    1 type  1   force =     0.00043587    0.00160671   -0.00091921
     atom    2 type  1   force =    -0.01186271   -0.00119805    0.00039307
     atom    3 type  1   force =    -0.01192519    0.00193638   -0.00090707
     atom    4 type  1   force =     0.01253584   -0.00141589    0.00244991
     atom    5 type  1   force =     0.00532950    0.00865245   -0.00313859
     atom    6 type  2   force =    -0.00050243    0.00213420    0.00219049
     atom    7 type  2   force =     0.00153011   -0.00366469   -0.00249935
     atom    8 type  3   force =    -0.03238304    0.00107908    0.00049833
     atom    9 type  3   force =     0.02485383   -0.00405197    0.00032143
     atom   10 type  3   force =    -0.02249229    0.00913486   -0.01676918
     atom   11 type  3   force =    -0.02324648    0.00857932    0.01779642
     atom   12 type  3   force =    -0.02222332   -0.00968501   -0.01559171
     atom   13 type  3   force =    -0.02279558   -0.00938253    0.01549486
     atom   14 type  3   force =     0.02142110    0.01011445   -0.01617483
     atom   15 type  3   force =     0.02324826    0.00984717    0.01522493
     atom   16 type  3   force =     0.02279808   -0.01100966   -0.01572591
     atom   17 type  3   force =     0.02470305   -0.00956410    0.01266753
     atom   18 type  4   force =     0.00032664   -0.00303564    0.00297373
     atom   19 type  4   force =    -0.00967183    0.00008683   -0.00940495
     atom   20 type  4   force =    -0.00964402    0.00076747    0.00904425
     atom   21 type  4   force =     0.00983724   -0.00001182   -0.00966234
     atom   22 type  4   force =     0.01061587    0.00064913    0.00870464
     atom   23 type  5   force =     0.00000000    0.00000000    0.00000000
     The Hubbard contrib.    to forces
     atom    1 type  1   force =     0.00000000    0.00000000    0.00000000
     atom    2 type  1   force =     0.00000000    0.00000000    0.00000000
     atom    3 type  1   force =     0.00000000    0.00000000    0.00000000
     atom    4 type  1   force =     0.00000000    0.00000000    0.00000000
     atom    5 type  1   force =     0.00000000    0.00000000    0.00000000
     atom    6 type  2   force =     0.00000000    0.00000000    0.00000000
     atom    7 type  2   force =     0.00000000    0.00000000    0.00000000
     atom    8 type  3   force =     0.00000000    0.00000000    0.00000000
     atom    9 type  3   force =     0.00000000    0.00000000    0.00000000
     atom   10 type  3   force =     0.00000000    0.00000000    0.00000000
     atom   11 type  3   force =     0.00000000    0.00000000    0.00000000
     atom   12 type  3   force =     0.00000000    0.00000000    0.00000000
     atom   13 type  3   force =     0.00000000    0.00000000    0.00000000
     atom   14 type  3   force =     0.00000000    0.00000000    0.00000000
     atom   15 type  3   force =     0.00000000    0.00000000    0.00000000
     atom   16 type  3   force =     0.00000000    0.00000000    0.00000000
     atom   17 type  3   force =     0.00000000    0.00000000    0.00000000
     atom   18 type  4   force =     0.00000000    0.00000000    0.00000000
     atom   19 type  4   force =     0.00000000    0.00000000    0.00000000
     atom   20 type  4   force =     0.00000000    0.00000000    0.00000000
     atom   21 type  4   force =     0.00000000    0.00000000    0.00000000
     atom   22 type  4   force =     0.00000000    0.00000000    0.00000000
     atom   23 type  5   force =     0.00000000    0.00000000    0.00000000
     The SCF correction term to forces
     atom    1 type  1   force =     0.00477096    0.00101463   -0.01184614
     atom    2 type  1   force =     0.00136310   -0.00404074   -0.02058655
     atom    3 type  1   force =     0.00230214    0.00518037   -0.02248559
     atom    4 type  1   force =    -0.00046486    0.00071273   -0.02058984
     atom    5 type  1   force =    -0.00385626   -0.00102981   -0.01895427
     atom    6 type  2   force =     0.00713319   -0.01065257   -0.02526669
     atom    7 type  2   force =     0.01099864    0.00121507   -0.01020658
     atom    8 type  3   force =     0.00396345   -0.00131899   -0.01813698
     atom    9 type  3   force =     0.01171206    0.00463143   -0.01531860
     atom   10 type  3   force =     0.00524780   -0.01700822   -0.00181198
     atom   11 type  3   force =     0.00123216    0.00277976    0.00997086
     atom   12 type  3   force =     0.00350110    0.01370019   -0.00265347
     atom   13 type  3   force =     0.00633917   -0.00235505    0.01279481
     atom   14 type  3   force =    -0.00487977   -0.01115632   -0.00188626
     atom   15 type  3   force =     0.00101515   -0.00178949    0.01056766
     atom   16 type  3   force =    -0.00625992    0.01203710   -0.00349871
     atom   17 type  3   force =    -0.00185863   -0.00428549    0.01226331
     atom   18 type  4   force =     0.00463870    0.00980339   -0.02400954
     atom   19 type  4   force =     0.00113964    0.00175527   -0.00427015
     atom   20 type  4   force =     0.00345513   -0.00023592    0.01106907
     atom   21 type  4   force =     0.00129367   -0.00072954    0.00033140
     atom   22 type  4   force =    -0.00025523    0.00375243    0.00643475
     atom   23 type  5   force =    -0.00172799   -0.00186000   -0.00234305

     Total force =     0.513525     Total SCF correction =     0.078200
     SCF correction compared to forces is large: reduce conv_thr to get better values

     Computing stress (Cartesian axis) and pressure

     negative rho (up, down):  9.091E-01 9.091E-01
          total   stress  (Ry/bohr**3)                   (kbar)     P=       80.94
   0.00062414   0.00000559  -0.00000097           91.81        0.82       -0.14
   0.00000559   0.00064628  -0.00000837            0.82       95.07       -1.23
  -0.00000097  -0.00000837   0.00038031           -0.14       -1.23       55.95

     Entering Dynamics:    iteration =    20
                           time      =   0.0041 pico-seconds

ATOMIC_POSITIONS (angstrom)
Hf            2.6718453151        2.8284281656        6.6049836215
Hf            1.2534127312        1.2876426483        5.0593457954
Hf            1.2559148483        7.3914761384        5.0889998517
Hf            4.0902257264        1.2876811630        5.0593314785
Hf            4.0877024526        7.3912865104        5.0890290729
Nb            2.6719670923        2.7982333011        3.5167527328
Nb            2.6715084248        5.8781322654        6.6355641879
Ta            1.2098234401        4.3425810772        5.0720556022
Ta            4.0959073979        4.3094973128        5.0526464033
Ta            1.3087452248        1.3153099339        2.0589909460
Ta            1.3043197347        1.3095319851        8.0960993835
Ta            1.3055687775        7.3777677130        2.0464894842
Ta            1.3093363273        7.3669694401        8.0875858603
Ta            4.0347416173        1.3153454342        2.0590036675
Ta            4.0391834784        1.3095222434        8.0961381616
Ta            4.0379760876        7.3777806761        2.0465206839
Ta            4.0342027327        7.3670232460        8.0875685571
Zr            2.6719148582        5.8683526722        3.5281952808
Zr            1.2426592636        4.3234994246        1.9982550897
Zr            1.2391991490        4.3557520648        8.1532243370
Zr            4.1008009644        4.3234583123        1.9983070934
Zr            4.1043139535        4.3557169233        8.1532085677
H             5.9897098820        5.9786876713        6.0216259627

     kinetic energy (Ekin) =           8.07144055 Ry
     temperature           =       38617.56573960 K
     Ekin + Etot (const)   =       -2934.97797688 Ry
     Ions kinetic stress =          142.55 (kbar)
                                    208.58         184.77         107.11
                                    184.77         163.87          94.99
                                    107.11          94.99          55.20

     Linear momentum :    0.0000000000    0.0000000000   -0.0000000000

     The maximum number of steps has been reached.

     End of molecular dynamics calculation

     diffusion coefficients :
     atom     1   D =       0.00000003 cm^2/s
     atom     2   D =       0.00000001 cm^2/s
     atom     3   D =       0.00000002 cm^2/s
     atom     4   D =       0.00000005 cm^2/s
     atom     5   D =       0.00000005 cm^2/s
     atom     6   D =       0.00000003 cm^2/s
     atom     7   D =       0.00000002 cm^2/s
     atom     8   D =       0.00000002 cm^2/s
     atom     9   D =       0.00001040 cm^2/s
     atom    10   D =       0.00000002 cm^2/s
     atom    11   D =       0.00000002 cm^2/s
     atom    12   D =       0.00000003 cm^2/s
     atom    13   D =       0.00000004 cm^2/s
     atom    14   D =       0.00000002 cm^2/s
     atom    15   D =       0.00000003 cm^2/s
     atom    16   D =       0.00000003 cm^2/s
     atom    17   D =       0.00000004 cm^2/s
     atom    18   D =       0.00000004 cm^2/s
     atom    19   D =       0.00000003 cm^2/s
     atom    20   D =       0.00000007 cm^2/s
     atom    21   D =       0.00000011 cm^2/s
     atom    22   D =       0.00000015 cm^2/s
     atom    23   D =       0.00175531 cm^2/s

     < D > =       0.00007681 cm^2/s

     Writing all to output data dir outdir/pwscf.save/

     General routines

     Parallel routines

   This run was terminated on:  21:23:47  12Jun2023

   JOB DONE.