     Program PWSCF v.7.2 starts on  6Jun2023 at 18:28:59

     Reading input from md_Hf5Nb2Ta10Zr5H_15steps_1000eV_offset_02.in
Warning: card &CELL ignored
Warning: card / ignored

     Current dimensions of program PWSCF are:
     Max number of different atomic species (ntypx) = 10
     Max number of k-points (npk) =  40000
     Max angular momentum in pseudopotentials (lmaxx) =  4

     File outdir/pwscf.md deleted, as requested

     gamma-point specific algorithms are used

     R & G space division:  proc/nbgrp/npool/nimage =      12
     Subspace diagonalization in iterative solution of the eigenvalue problem:
     one sub-group per band group will be used

     Using Slab Decomposition

     bravais-lattice index     =            0
     lattice parameter (alat)  =      15.7603  a.u.
     unit-cell volume          =    4958.3580 (a.u.)^3
     number of atoms/cell      =           23
     number of atomic types    =            5
     number of electrons       =       277.00
     number of Kohn-Sham states=          167
     kinetic-energy cutoff     =     120.0000  Ry
     charge density cutoff     =     480.0000  Ry
     scf convergence threshold =      1.0E-03
     mixing beta               =       0.7000
     number of iterations used =            8  TF        mixing
     energy convergence thresh.=      0.0E+00
     force convergence thresh. =      0.0E+00
     Exchange-correlation=  SLA  PW   PBX  PBC
                           (   1   4   3   4   0   0   0)
     nstep                     =           15

     celldm(1)=  15.760315  celldm(2)=   0.000000  celldm(3)=   0.000000
     celldm(4)=   0.000000  celldm(5)=   0.000000  celldm(6)=   0.000000

     crystal axes: (cart. coord. in units of alat)
               a(1) = (   1.000000   0.000000   0.000000 )
               a(2) = (   0.000000   1.040767   0.000000 )
               a(3) = (   0.000000   0.000000   1.216997 )

     reciprocal axes: (cart. coord. in units 2 pi/alat)
               b(1) = (  1.000000  0.000000  0.000000 )
               b(2) = (  0.000000  0.960830  0.000000 )
               b(3) = (  0.000000  0.000000  0.821695 )

     PseudoPot. # 1 for Hf read from file:
     q-e/pseudo/hf_pbe_v1.uspp.F.UPF
     MD5 check sum: 8ee9378dfe14276e333edf04c5e4aa26
     Pseudo is Ultrasoft + core correction, Zval = 12.0
     Generated by new atomic code, or converted to UPF format
     Using radial grid of  921 points,  8 beta functions with:
                l(1) =   0
                l(2) =   0
                l(3) =   0
                l(4) =   1
                l(5) =   1
                l(6) =   2
                l(7) =   2
                l(8) =   3
     Q(r) pseudized with  6 coefficients,  rinner =    1.200   1.200   1.200
                                                       1.200   1.200   1.200
                                                       1.200

     PseudoPot. # 2 for Nb read from file:
     q-e/pseudo/nb_pbe_v1.uspp.F.UPF
     MD5 check sum: 573aab8a2fa660278ed4a62cd769473f
     Pseudo is Ultrasoft + core correction, Zval = 13.0
     Generated by new atomic code, or converted to UPF format
     Using radial grid of  887 points,  6 beta functions with:
                l(1) =   0
                l(2) =   0
                l(3) =   1
                l(4) =   1
                l(5) =   2
                l(6) =   2
     Q(r) pseudized with  6 coefficients,  rinner =    1.000   1.000   1.000
                                                       1.000   1.000

     PseudoPot. # 3 for Ta read from file:
     q-e/pseudo/ta_pbe_v1.uspp.F.UPF
     MD5 check sum: f8bbe9446314a3b8ea5d9f3e3836c939
     Pseudo is Ultrasoft + core correction, Zval = 13.0
     Generated by new atomic code, or converted to UPF format
     Using radial grid of  921 points,  7 beta functions with:
                l(1) =   0
                l(2) =   0
                l(3) =   1
                l(4) =   1
                l(5) =   2
                l(6) =   2
                l(7) =   3
     Q(r) pseudized with  6 coefficients,  rinner =    1.300   1.300   1.300
                                                       1.300   1.300   1.300
                                                       1.300

     PseudoPot. # 4 for Zr read from file:
     q-e/pseudo/zr_pbe_v1.uspp.F.UPF
     MD5 check sum: 5db81b1e868ab7776c4564c113de050b
     Pseudo is Ultrasoft + core correction, Zval = 12.0
     Generated by new atomic code, or converted to UPF format
     Using radial grid of  887 points,  6 beta functions with:
                l(1) =   0
                l(2) =   0
                l(3) =   1
                l(4) =   1
                l(5) =   2
                l(6) =   2
     Q(r) pseudized with  6 coefficients,  rinner =    1.200   1.200   1.200
                                                       1.200   1.200

     PseudoPot. # 5 for H  read from file:
     q-e/pseudo/h_pbe_v1.4.uspp.F.UPF
     MD5 check sum: 761ae9a214b05c3daf00ab9f6b793d6f
     Pseudo is Ultrasoft, Zval =  1.0
     Generated by new atomic code, or converted to UPF format
     Using radial grid of  615 points,  2 beta functions with:
                l(1) =   0
                l(2) =   0
     Q(r) pseudized with  8 coefficients,  rinner =    0.700

     atomic species   valence    mass     pseudopotential
        Hf            12.00   178.49000     Hf( 1.00)
        Nb            13.00    92.90637     Nb( 1.00)
        Ta            13.00   180.94788     Ta( 1.00)
        Zr            12.00    91.22400     Zr( 1.00)
        H              1.00     2.01400     H ( 1.00)

     Starting magnetic structure
     atomic species   magnetization
        Hf           0.000
        Nb           0.000
        Ta           0.000
        Zr           0.000
        H            0.000

     No symmetry found

   Cartesian axes

     site n.     atom                  positions (alat units)
         1           Hf  tau(   1) = (   0.3201439   0.3389836   0.7918423  )
         2           Hf  tau(   2) = (   0.1502387   0.1542307   0.6065307  )
         3           Hf  tau(   3) = (   0.1505380   0.8860677   0.6100801  )
         4           Hf  tau(   4) = (   0.4900491   0.1542307   0.6065307  )
         5           Hf  tau(   5) = (   0.4897498   0.8860677   0.6100801  )
         6           Nb  tau(   6) = (   0.3201439   0.3353634   0.4215328  )
         7           Nb  tau(   7) = (   0.3201439   0.7046018   0.7955633  )
         8           Ta  tau(   8) = (   0.1450088   0.5204950   0.6080487  )
         9           Ta  tau(   9) = (   0.4952790   0.5204950   0.6080487  )
        10           Ta  tau(  10) = (   0.1567449   0.1575687   0.2468560  )
        11           Ta  tau(  11) = (   0.1562096   0.1568814   0.9705731  )
        12           Ta  tau(  12) = (   0.1563561   0.8843917   0.2453522  )
        13           Ta  tau(  13) = (   0.1567999   0.8831035   0.9695447  )
        14           Ta  tau(  14) = (   0.4835429   0.1575687   0.2468560  )
        15           Ta  tau(  15) = (   0.4840781   0.1568814   0.9705731  )
        16           Ta  tau(  16) = (   0.4839317   0.8843917   0.2453522  )
        17           Ta  tau(  17) = (   0.4834879   0.8831035   0.9695447  )
        18           Zr  tau(  18) = (   0.3201439   0.7033916   0.4229477  )
        19           Zr  tau(  19) = (   0.1491408   0.5182348   0.2398082  )
        20           Zr  tau(  20) = (   0.1487273   0.5220772   0.9771889  )
        21           Zr  tau(  21) = (   0.4911469   0.5182348   0.2398082  )
        22           Zr  tau(  22) = (   0.4915605   0.5220772   0.9771889  )
        23           H   tau(  23) = (   0.6751351   0.5443645   0.6081751  )

     number of k points=     1  Gaussian smearing, width (Ry)=  0.0220
                       cart. coord. in units 2pi/alat
        k(    1) = (   0.0000000   0.0000000   0.0000000), wk =   1.0000000

     Check: negative core charge=   -0.000002
     Generating pointlists ...
     new r_m :   0.1251 (alat units)  1.9717 (a.u.) for type    1
     new r_m :   0.1229 (alat units)  1.9374 (a.u.) for type    2
     new r_m :   0.0748 (alat units)  1.1795 (a.u.) for type    3
     new r_m :   0.1245 (alat units)  1.9625 (a.u.) for type    4
     new r_m :   0.0748 (alat units)  1.1795 (a.u.) for type    5

     Initial potential from superposition of free atoms

     starting charge     266.9726, renormalised to     277.0000

     negative rho (up, down):  9.206E-01 9.206E-01
     Starting wfcs are  287 randomized atomic wfcs

     Self-consistent Calculation

     iteration #  1     ecut=   120.00 Ry     beta= 0.70
     Davidson diagonalization with overlap
     ethr =  1.00E-02,  avg # of iterations =  3.0

     negative rho (up, down):  9.825E-01 9.821E-01

     total energy              =   -2932.11560014 Ry
     estimated scf accuracy    <     291.71757197 Ry

     total magnetization       =    -0.00 Bohr mag/cell
     absolute magnetization    =     0.08 Bohr mag/cell

[...]

     Magnetic moment per site  (integrated on atomic sphere of radius R)
     atom   1 (R=0.125)  charge=  9.4605  magn=  0.0001
     atom   2 (R=0.125)  charge=  9.0580  magn= -0.0011
     atom   3 (R=0.125)  charge=  9.0571  magn= -0.0010
     atom   4 (R=0.125)  charge=  9.0556  magn= -0.0011
     atom   5 (R=0.125)  charge=  9.0550  magn= -0.0011
     atom   6 (R=0.123)  charge= 10.3448  magn= -0.0016
     atom   7 (R=0.123)  charge= 10.3450  magn= -0.0005
     atom   8 (R=0.075)  charge=  5.3305  magn= -0.0001
     atom   9 (R=0.075)  charge=  5.3487  magn= -0.0005
     atom  10 (R=0.075)  charge=  5.3143  magn=  0.0006
     atom  11 (R=0.075)  charge=  5.3130  magn= -0.0000
     atom  12 (R=0.075)  charge=  5.3143  magn= -0.0003
     atom  13 (R=0.075)  charge=  5.3135  magn=  0.0003
     atom  14 (R=0.075)  charge=  5.3141  magn=  0.0005
     atom  15 (R=0.075)  charge=  5.3129  magn= -0.0001
     atom  16 (R=0.075)  charge=  5.3157  magn= -0.0006
     atom  17 (R=0.075)  charge=  5.3129  magn= -0.0001
     atom  18 (R=0.125)  charge=  9.4542  magn= -0.0003
     atom  19 (R=0.125)  charge=  9.0035  magn=  0.0034
     atom  20 (R=0.125)  charge=  8.9994  magn=  0.0005
     atom  21 (R=0.125)  charge=  9.0003  magn=  0.0025
     atom  22 (R=0.125)  charge=  8.9972  magn= -0.0002
     atom  23 (R=0.075)  charge=  0.8845  magn= -0.0000

     End of self-consistent calculation

 ------ SPIN UP ------------

          k = 0.0000 0.0000 0.0000 ( 55051 PWs)   bands (ev):

   -59.4891 -59.4772 -59.4440 -59.4321 -59.4068 -59.4018 -59.3632 -59.3580
   -59.2270 -58.7574 -53.0891 -53.0333 -52.9644 -52.9094 -51.3670 -44.9032
   -44.8962 -40.3243 -40.3082 -40.2200 -40.2176 -38.4659 -26.4865 -26.4773
   -26.4029 -26.3893 -26.3066 -26.2965 -26.1809 -26.1698 -26.0545 -26.0274
   -25.9890 -25.9670 -25.9525 -25.9274 -25.9172 -25.8673 -25.8575 -25.8348
   -25.7947 -25.6729 -25.6632 -25.6531 -25.6486 -25.5917 -25.5901 -25.5700
   -25.5672 -25.4986 -25.4728 -25.4302 -22.8659 -22.6564 -22.3437 -22.2680
   -22.0050 -21.8634 -21.8422 -21.7398 -21.6219 -21.5554 -21.5368 -21.3216
   -21.1505 -21.1025 -21.0602 -21.0081 -20.9502 -20.8940 -20.4358 -20.3636
[...]
     8.4906   8.5557   8.5699   8.5801   8.6600   8.7829   8.8308   8.8933
     8.9283   9.0765   9.2168   9.2340   9.3184   9.3642   9.3797   9.5697
     9.6105   9.6221   9.6381   9.6498   9.7735   9.8902   9.9502  10.0772
    10.1909  10.2181  10.3387  10.3713  10.4125  10.4829  10.5433

     the Fermi energy is     8.5651 ev

!    total energy              =   -2941.41229081 Ry
     estimated scf accuracy    <       0.00019395 Ry
     smearing contrib. (-TS)   =      -0.09891039 Ry
     internal energy E=F+TS    =   -2941.31338042 Ry

     total magnetization       =    -0.00 Bohr mag/cell
     absolute magnetization    =     0.00 Bohr mag/cell

     convergence has been achieved in   5 iterations

     negative rho (up, down):  9.052E-01 9.052E-01

     Forces acting on atoms (cartesian axes, Ry/au):

     atom    1 type  1   force =    -0.00009744   -0.03016636    0.00615579
     atom    2 type  1   force =    -0.13000429   -0.00403938   -0.00499965
     atom    3 type  1   force =    -0.04766872    0.01899353    0.00151243
     atom    4 type  1   force =     0.13446738   -0.02394104   -0.00424112
     atom    5 type  1   force =    -3.85094441    0.16786034    0.01705197
     atom    6 type  2   force =    -0.00187445   -0.01975727    0.01072692
     atom    7 type  2   force =     0.00373268    0.00213604    0.01387084
     atom    8 type  3   force =    -0.11291397    0.00925762   -0.00380492
     atom    9 type  3   force =     0.11339348    0.01549099   -0.00219671
     atom   10 type  3   force =    -0.02688811   -0.03310542   -0.05506713
     atom   11 type  3   force =    -0.02466830   -0.03541016    0.05369225
     atom   12 type  3   force =    -0.02396854    0.03218958   -0.05210776
     atom   13 type  3   force =    -0.02517349    0.02477704    0.05870844
     atom   14 type  3   force =     0.02594445   -0.03425090   -0.05693308
     atom   15 type  3   force =     0.02428088   -0.03626288    0.05522668
     atom   16 type  3   force =     0.02481698    0.03638271   -0.04780864
     atom   17 type  3   force =     0.02533440    0.02921675    0.05356944
     atom   18 type  4   force =     0.00269102    0.01708313   -0.02773191
     atom   19 type  4   force =    -0.13370241   -0.00023786   -0.11395929
     atom   20 type  4   force =    -0.13563652    0.01160306    0.11555324
     atom   21 type  4   force =     0.13650025   -0.00061070   -0.11396928
     atom   22 type  4   force =     0.13732458    0.01169592    0.11572037
     atom   23 type  5   force =     3.88505457   -0.15890476   -0.01896889
     The non-local contrib.  to forces
     atom    1 type  1   force =     0.00075885   -0.01715892    0.02862993
     atom    2 type  1   force =    -0.23067923   -0.16089791    0.01465408
     atom    3 type  1   force =    -0.14737429    0.15116098   -0.02741317
     atom    4 type  1   force =     0.23333237   -0.15497737    0.01507183
     atom    5 type  1   force =     1.45283404    0.07373036   -0.03909284
     atom    6 type  2   force =    -0.00145655   -0.04822014   -0.05662818
     atom    7 type  2   force =    -0.00436159    0.03778859    0.08904400
     atom    8 type  3   force =    -0.26160561    0.00687887   -0.00449686
     atom    9 type  3   force =     0.26226962    0.00868374   -0.00434395
     atom   10 type  3   force =    -0.21859044    0.00061561   -0.20731725
     atom   11 type  3   force =    -0.22685492    0.00518120    0.19656232
     atom   12 type  3   force =    -0.20779479   -0.02653719   -0.18245591
     atom   13 type  3   force =    -0.21676480   -0.01067900    0.21138064
     atom   14 type  3   force =     0.22183363    0.00358854   -0.21387889
     atom   15 type  3   force =     0.23026904    0.00892153    0.20218870
     atom   16 type  3   force =     0.21143681   -0.02611366   -0.17800698
     atom   17 type  3   force =     0.22069231   -0.01008848    0.20595573
     atom   18 type  4   force =     0.00130938    0.03439916   -0.08709315
     atom   19 type  4   force =     0.06332120    0.01158217    0.07014722
     atom   20 type  4   force =     0.06129917   -0.00715154   -0.06825039
     atom   21 type  4   force =    -0.06943997    0.01312005    0.06884483
     atom   22 type  4   force =    -0.06648481   -0.00790593   -0.06464140
     atom   23 type  5   force =    -0.19133636    0.01154796    0.00260168
     The ionic contribution  to forces
     atom    1 type  1   force =    -0.09705665   -4.52468710   14.35944344
     atom    2 type  1   force =   -34.59162181   -5.97656889    0.77810612
     atom    3 type  1   force =   -34.69178214    6.11760627   -0.71191364
     atom    4 type  1   force =    34.26788579   -5.42298398    0.77249813
     atom    5 type  1   force =    25.55552930    6.50715594   -0.65810525
     atom    6 type  2   force =    -0.10406820   -3.46970036  -14.28732906
     atom    7 type  2   force =    -0.41973111    3.23499525   14.55299897
     atom    8 type  3   force =   -46.32660300   -0.06001142   -0.06784048
     atom    9 type  3   force =    46.09406989   -0.46102656   -0.06969135
     atom   10 type  3   force =   -31.13642915   -2.00384503  -23.64809314
     atom   11 type  3   force =   -30.20500598   -0.75066749   22.65096298
     atom   12 type  3   force =   -30.35293002    0.77933547  -22.76648971
     atom   13 type  3   force =   -31.14494097    2.16886857   23.69889222
     atom   14 type  3   force =    31.02501314   -1.89711159  -23.76903893
     atom   15 type  3   force =    30.09357390   -0.64269087   22.77368093
     atom   16 type  3   force =    30.10971470    0.77505617  -23.16204973
     atom   17 type  3   force =    30.89286009    2.16310441   24.10680918
     atom   18 type  4   force =    -0.38470553    4.03241305  -14.43199115
     atom   19 type  4   force =   -31.12176751    0.90331550  -26.03462417
     atom   20 type  4   force =   -31.09377275   -1.01697216   26.01454584
     atom   21 type  4   force =    31.04645963    0.83353554  -26.12327832
     atom   22 type  4   force =    31.01730974   -1.08984548   26.10590328
     atom   23 type  5   force =    11.56799865   -0.19927526   -0.08339616
     The local contribution  to forces
     atom    1 type  1   force =     0.10134455    4.51183379  -14.38696096
     atom    2 type  1   force =    34.70757710    6.13212384   -0.80690488
     atom    3 type  1   force =    34.81250534   -6.25376227    0.73309738
     atom    4 type  1   force =   -34.38071556    5.54655586   -0.79988029
     atom    5 type  1   force =   -31.06582185   -6.39772274    0.70797434
     atom    6 type  2   force =     0.10966390    3.49285970   14.34642736
     atom    7 type  2   force =     0.43189551   -3.26662927  -14.63814793
     atom    8 type  3   force =    46.51190466    0.06533028    0.06228094
     atom    9 type  3   force =   -46.27534172    0.47324248    0.06535981
     atom   10 type  3   force =    31.35113822    1.95476848   23.81757844
     atom   11 type  3   force =    30.43671148    0.70355851  -22.80967622
     atom   12 type  3   force =    30.56116908   -0.70723119   22.91459084
     atom   13 type  3   force =    31.36443679   -2.12820445  -23.86724627
     atom   14 type  3   force =   -31.23833706    1.84266481   23.94366775
     atom   15 type  3   force =   -30.32206851    0.58988766  -22.93788433
     atom   16 type  3   force =   -30.31604247   -0.69709212   23.31229796
     atom   17 type  3   force =   -31.11146829   -2.11414960  -24.27688883
     atom   18 type  4   force =     0.39151629   -4.03957410   14.48616423
     atom   19 type  4   force =    30.93355594   -0.91274285   25.86069669
     atom   20 type  4   force =    30.91274207    1.03674685  -25.84037214
     atom   21 type  4   force =   -30.84626038   -0.84612417   25.95078656
     atom   22 type  4   force =   -30.82651805    1.10712210  -25.93497268
     atom   23 type  5   force =    -7.49334799    0.02873058    0.06004235
     The core correction contribution to forces
     atom    1 type  1   force =     0.00027889    0.00105354    0.00032775
     atom    2 type  1   force =    -0.00908787   -0.00237047    0.00075637
     atom    3 type  1   force =    -0.00748207    0.00288387   -0.00183528
     atom    4 type  1   force =     0.00842687    0.00049642    0.00073707
     atom    5 type  1   force =     0.19251091   -0.01387085   -0.00367891
     atom    6 type  2   force =     0.00005272    0.00223311    0.00223393
     atom    7 type  2   force =     0.00021129   -0.00134665   -0.00409249
     atom    8 type  3   force =    -0.03172682    0.00065995   -0.00019921
     atom    9 type  3   force =     0.03130534    0.00065008   -0.00025089
     atom   10 type  3   force =    -0.02211568    0.00841964   -0.01591701
     atom   11 type  3   force =    -0.02374451    0.00883474    0.01642123
     atom   12 type  3   force =    -0.02213360   -0.00943137   -0.01520703
     atom   13 type  3   force =    -0.02250351   -0.00844210    0.01599570
     atom   14 type  3   force =     0.02240128    0.00870184   -0.01616675
     atom   15 type  3   force =     0.02411815    0.00926360    0.01673028
     atom   16 type  3   force =     0.02214268   -0.00908166   -0.01504124
     atom   17 type  3   force =     0.02234368   -0.00794916    0.01583673
     atom   18 type  4   force =    -0.00004826   -0.00140824    0.00468902
     atom   19 type  4   force =    -0.00987034   -0.00009882   -0.00949996
     atom   20 type  4   force =    -0.00978153   -0.00001235    0.00943242
     atom   21 type  4   force =     0.01030629   -0.00020355   -0.00943580
     atom   22 type  4   force =     0.01015713   -0.00002782    0.00927711
     atom   23 type  5   force =     0.00000000    0.00000000    0.00000000
     The Hubbard contrib.    to forces
     atom    1 type  1   force =     0.00000000    0.00000000    0.00000000
     atom    2 type  1   force =     0.00000000    0.00000000    0.00000000
     atom    3 type  1   force =     0.00000000    0.00000000    0.00000000
     atom    4 type  1   force =     0.00000000    0.00000000    0.00000000
     atom    5 type  1   force =     0.00000000    0.00000000    0.00000000
     atom    6 type  2   force =     0.00000000    0.00000000    0.00000000
     atom    7 type  2   force =     0.00000000    0.00000000    0.00000000
     atom    8 type  3   force =     0.00000000    0.00000000    0.00000000
     atom    9 type  3   force =     0.00000000    0.00000000    0.00000000
     atom   10 type  3   force =     0.00000000    0.00000000    0.00000000
     atom   11 type  3   force =     0.00000000    0.00000000    0.00000000
     atom   12 type  3   force =     0.00000000    0.00000000    0.00000000
     atom   13 type  3   force =     0.00000000    0.00000000    0.00000000
     atom   14 type  3   force =     0.00000000    0.00000000    0.00000000
     atom   15 type  3   force =     0.00000000    0.00000000    0.00000000
     atom   16 type  3   force =     0.00000000    0.00000000    0.00000000
     atom   17 type  3   force =     0.00000000    0.00000000    0.00000000
     atom   18 type  4   force =     0.00000000    0.00000000    0.00000000
     atom   19 type  4   force =     0.00000000    0.00000000    0.00000000
     atom   20 type  4   force =     0.00000000    0.00000000    0.00000000
     atom   21 type  4   force =     0.00000000    0.00000000    0.00000000
     atom   22 type  4   force =     0.00000000    0.00000000    0.00000000
     atom   23 type  5   force =     0.00000000    0.00000000    0.00000000
     The SCF correction term to forces
     atom    1 type  1   force =    -0.00000000   -0.00000000    0.00000000
     atom    2 type  1   force =    -0.00000000    0.00000000    0.00000000
     atom    3 type  1   force =    -0.00000000    0.00000000    0.00000000
     atom    4 type  1   force =     0.00000000    0.00000000    0.00000000
     atom    5 type  1   force =     0.00000000   -0.00000000    0.00000000
     atom    6 type  2   force =    -0.00000000    0.00000000    0.00000000
     atom    7 type  2   force =    -0.00000000   -0.00000000    0.00000000
     atom    8 type  3   force =    -0.00000000   -0.00000000    0.00000000
     atom    9 type  3   force =     0.00000000   -0.00000000    0.00000000
     atom   10 type  3   force =    -0.00000000    0.00000000   -0.00000000
     atom   11 type  3   force =    -0.00000000   -0.00000000   -0.00000000
     atom   12 type  3   force =    -0.00000000   -0.00000000   -0.00000000
     atom   13 type  3   force =    -0.00000000    0.00000000   -0.00000000
     atom   14 type  3   force =    -0.00460806    0.00794239   -0.00212883
     atom   15 type  3   force =    -0.00125322   -0.00160790   -0.00010149
     atom   16 type  3   force =    -0.00207624   -0.00634913   -0.00562123
     atom   17 type  3   force =     0.00126510   -0.00166354    0.00124406
     atom   18 type  4   force =    -0.00502237   -0.00870985   -0.00011344
     atom   19 type  4   force =     0.00141679   -0.00225696   -0.00129165
     atom   20 type  4   force =    -0.00576500   -0.00097085   -0.00041506
     atom   21 type  4   force =    -0.00420683   -0.00090167   -0.00149912
     atom   22 type  4   force =     0.00321907    0.00238994   -0.00045852
     atom   23 type  5   force =     0.00209876    0.00012885    0.00117066

     Total force =     3.907136     Total SCF correction =     0.019032

     Entering Dynamics:    iteration =    15
                           time      =   0.0030 pico-seconds

ATOMIC_POSITIONS (angstrom)
Hf            2.6699999570        2.8271230292        6.6039642186    0   0   0
Hf            1.2529906802        1.2862841814        5.0584662261    0   0   0
Hf            1.2554868986        7.3898042948        5.0880677674    0   0   0
Hf            4.0870092338        1.2862841814        5.0584662261    0   0   0
Hf            4.0845130154        7.3898042948        5.0880677674    0   0   0
Nb            2.6699999570        2.7969306055        3.5155832167    0   0   0
Nb            2.6699999570        5.8763786763        6.6349979432    0   0   0
Ta            1.2093730560        4.3409278516        5.0711258323    0   0   0
Ta            4.1306268580        4.3409278516        5.0711258323    0   0   0
Ta            1.3072526841        1.3141225894        2.0587791101    0   0   0
Ta            1.3027883142        1.3083911360        8.0945792024    0   0   0
Ta            1.3040096221        7.3758261241        2.0462371798    0   0   0
Ta            1.3077107984        7.3650829484        8.0860022208    0   0   0
Ta            4.0328810522        1.3139409095        2.0583994054
Ta            4.0373477096        1.3081799716        8.0949378233
Ta            4.0361055051        7.3760539435        2.0458959980
Ta            4.0324088672        7.3652734238        8.0863695600
Zr            2.6699957018        5.8665608654        3.5272679223
Zr            1.2421043774        4.3219996612        1.9985330201
Zr            1.2386060972        4.3541901294        8.1512400956
Zr            4.0978530878        4.3219839981        1.9985682869
Zr            4.1013693037        4.3541723550        8.1512009664
H             5.0611793977        7.6329655064        5.0835548882

     kinetic energy (Ekin) =          16.73437258 Ry
     temperature           =      176143.23050682 K
     Ekin + Etot (const)   =       -2924.67791823 Ry

     The maximum number of steps has been reached.

     End of molecular dynamics calculation

     diffusion coefficients :
     atom     1   D =       0.00000000 cm^2/s
     atom     2   D =       0.00000000 cm^2/s
     atom     3   D =       0.00000000 cm^2/s
     atom     4   D =       0.00000000 cm^2/s
     atom     5   D =       0.00000000 cm^2/s
     atom     6   D =       0.00000000 cm^2/s
     atom     7   D =       0.00000000 cm^2/s
     atom     8   D =       0.00000000 cm^2/s
     atom     9   D =       0.00000000 cm^2/s
     atom    10   D =       0.00000000 cm^2/s
     atom    11   D =       0.00000000 cm^2/s
     atom    12   D =       0.00000000 cm^2/s
     atom    13   D =       0.00000000 cm^2/s
     atom    14   D =       0.00000000 cm^2/s
     atom    15   D =       0.00000000 cm^2/s
     atom    16   D =       0.00000000 cm^2/s
     atom    17   D =       0.00000000 cm^2/s
     atom    18   D =       0.00000000 cm^2/s
     atom    19   D =       0.00000003 cm^2/s
     atom    20   D =       0.00000003 cm^2/s
     atom    21   D =       0.00000003 cm^2/s
     atom    22   D =       0.00000003 cm^2/s
     atom    23   D =       0.05408740 cm^2/s

     < D > =       0.00540875 cm^2/s

     Writing all to output data dir outdir/pwscf.save/

     General routines

     Parallel routines

   This run was terminated on:  19:48:57   6Jun2023

   JOB DONE.