     Program PWSCF v.7.2 starts on 15Jun2023 at 23:11:11

     Reading input from md_data/md_Hf5Nb2Ta10Zr5H_20steps_50eV_incident60_polar60.in
Warning: card &CELL ignored
Warning: card / ignored

     Current dimensions of program PWSCF are:
     Max number of different atomic species (ntypx) = 10
     Max number of k-points (npk) =  40000
     Max angular momentum in pseudopotentials (lmaxx) =  4

     File outdir/pwscf.md deleted, as requested

     gamma-point specific algorithms are used

     R & G space division:  proc/nbgrp/npool/nimage =      42
     Subspace diagonalization in iterative solution of the eigenvalue problem:
     one sub-group per band group will be used

     Using Slab Decomposition

     bravais-lattice index     =            0
     lattice parameter (alat)  =      17.6500  a.u.
     unit-cell volume          =    5552.8853 (a.u.)^3
     number of atoms/cell      =           23
     number of atomic types    =            5
     number of electrons       =       277.00
     number of Kohn-Sham states=          167
     kinetic-energy cutoff     =     120.0000  Ry
     charge density cutoff     =     480.0000  Ry
     scf convergence threshold =      1.0E-03
     mixing beta               =       0.7000
     number of iterations used =            8  TF        mixing
     energy convergence thresh.=      0.0E+00
     force convergence thresh. =      0.0E+00
     Exchange-correlation=  SLA  PW   PBX  PBC
                           (   1   4   3   4   0   0   0)
     nstep                     =           20

     celldm(1)=  17.650041  celldm(2)=   0.000000  celldm(3)=   0.000000
     celldm(4)=   0.000000  celldm(5)=   0.000000  celldm(6)=   0.000000

     crystal axes: (cart. coord. in units of alat)
               a(1) = (   1.000000   0.000000   0.000000 )
               a(2) = (   0.000000   0.929336   0.000000 )
               a(3) = (   0.000000   0.000000   1.086698 )

     reciprocal axes: (cart. coord. in units 2 pi/alat)
               b(1) = (  1.000000  0.000000  0.000000 )
               b(2) = (  0.000000  1.076037  0.000000 )
               b(3) = (  0.000000  0.000000  0.920219 )

     PseudoPot. # 1 for Hf read from file:
     q-e/pseudo/hf_pbe_v1.uspp.F.UPF
     MD5 check sum: 8ee9378dfe14276e333edf04c5e4aa26
     Pseudo is Ultrasoft + core correction, Zval = 12.0
     Generated by new atomic code, or converted to UPF format
     Using radial grid of  921 points,  8 beta functions with:
                l(1) =   0
                l(2) =   0
                l(3) =   0
                l(4) =   1
                l(5) =   1
                l(6) =   2
                l(7) =   2
                l(8) =   3
     Q(r) pseudized with  6 coefficients,  rinner =    1.200   1.200   1.200
                                                       1.200   1.200   1.200
                                                       1.200

     PseudoPot. # 2 for Nb read from file:
     q-e/pseudo/nb_pbe_v1.uspp.F.UPF
     MD5 check sum: 573aab8a2fa660278ed4a62cd769473f
     Pseudo is Ultrasoft + core correction, Zval = 13.0
     Generated by new atomic code, or converted to UPF format
     Using radial grid of  887 points,  6 beta functions with:
                l(1) =   0
                l(2) =   0
                l(3) =   1
                l(4) =   1
                l(5) =   2
                l(6) =   2
     Q(r) pseudized with  6 coefficients,  rinner =    1.000   1.000   1.000
                                                       1.000   1.000

     PseudoPot. # 3 for Ta read from file:
     q-e/pseudo/ta_pbe_v1.uspp.F.UPF
     MD5 check sum: f8bbe9446314a3b8ea5d9f3e3836c939
     Pseudo is Ultrasoft + core correction, Zval = 13.0
     Generated by new atomic code, or converted to UPF format
     Using radial grid of  921 points,  7 beta functions with:
                l(1) =   0
                l(2) =   0
                l(3) =   1
                l(4) =   1
                l(5) =   2
                l(6) =   2
                l(7) =   3
     Q(r) pseudized with  6 coefficients,  rinner =    1.300   1.300   1.300
                                                       1.300   1.300   1.300
                                                       1.300

     PseudoPot. # 4 for Zr read from file:
     q-e/pseudo/zr_pbe_v1.uspp.F.UPF
     MD5 check sum: 5db81b1e868ab7776c4564c113de050b
     Pseudo is Ultrasoft + core correction, Zval = 12.0
     Generated by new atomic code, or converted to UPF format
     Using radial grid of  887 points,  6 beta functions with:
                l(1) =   0
                l(2) =   0
                l(3) =   1
                l(4) =   1
                l(5) =   2
                l(6) =   2
     Q(r) pseudized with  6 coefficients,  rinner =    1.200   1.200   1.200
                                                       1.200   1.200

     PseudoPot. # 5 for H  read from file:
     q-e/pseudo/h_pbe_v1.4.uspp.F.UPF
     MD5 check sum: 761ae9a214b05c3daf00ab9f6b793d6f
     Pseudo is Ultrasoft, Zval =  1.0
     Generated by new atomic code, or converted to UPF format
     Using radial grid of  615 points,  2 beta functions with:
                l(1) =   0
                l(2) =   0
     Q(r) pseudized with  8 coefficients,  rinner =    0.700

     atomic species   valence    mass     pseudopotential
        Hf            12.00   178.49000     Hf( 1.00)
        Nb            13.00    92.90637     Nb( 1.00)
        Ta            13.00   180.94788     Ta( 1.00)
        Zr            12.00    91.22400     Zr( 1.00)
        H              1.00     2.01400     H ( 1.00)

     Starting magnetic structure
     atomic species   magnetization
        Hf           0.000
        Nb           0.000
        Ta           0.000
        Zr           0.000
        H            0.000

     No symmetry found

   Cartesian axes

     site n.     atom                  positions (alat units)
         1           Hf  tau(   1) = (   0.2858672   0.3026898   0.7070626  )
         2           Hf  tau(   2) = (   0.1341532   0.1377178   0.5415917  )
         3           Hf  tau(   3) = (   0.1344204   0.7911996   0.5447610  )
         4           Hf  tau(   4) = (   0.4375813   0.1377178   0.5415917  )
         5           Hf  tau(   5) = (   0.4373140   0.7911996   0.5447610  )
         6           Nb  tau(   6) = (   0.2858672   0.2994572   0.3764008  )
         7           Nb  tau(   7) = (   0.2858672   0.6291626   0.7103852  )
         8           Ta  tau(   8) = (   0.1294832   0.4647675   0.5429471  )
         9           Ta  tau(   9) = (   0.4422513   0.4647675   0.5429471  )
        10           Ta  tau(  10) = (   0.1399628   0.1406984   0.2204260  )
        11           Ta  tau(  11) = (   0.1394848   0.1400847   0.8666573  )
        12           Ta  tau(  12) = (   0.1396156   0.7897030   0.2190832  )
        13           Ta  tau(  13) = (   0.1400119   0.7885528   0.8657390  )
        14           Ta  tau(  14) = (   0.4317717   0.1406984   0.2204260  )
        15           Ta  tau(  15) = (   0.4322496   0.1400847   0.8666573  )
        16           Ta  tau(  16) = (   0.4321189   0.7897030   0.2190832  )
        17           Ta  tau(  17) = (   0.4317226   0.7885528   0.8657390  )
        18           Zr  tau(  18) = (   0.2858672   0.6280820   0.3776642  )
        19           Zr  tau(  19) = (   0.1331729   0.4627493   0.2141328  )
        20           Zr  tau(  20) = (   0.1328036   0.4661802   0.8725649  )
        21           Zr  tau(  21) = (   0.4385616   0.4627493   0.2141328  )
        22           Zr  tau(  22) = (   0.4389309   0.4661802   0.8725649  )
        23           H   tau(  23) = (   0.5493177   0.5573903   0.7036595  )

     number of k points=     1  Gaussian smearing, width (Ry)=  0.0220
                       cart. coord. in units 2pi/alat
        k(    1) = (   0.0000000   0.0000000   0.0000000), wk =   1.0000000

     Check: negative core charge=   -0.000002
     Generating pointlists ...
     new r_m :   0.1117 (alat units)  1.9717 (a.u.) for type    1
     new r_m :   0.1098 (alat units)  1.9374 (a.u.) for type    2
     new r_m :   0.0883 (alat units)  1.5593 (a.u.) for type    3
     new r_m :   0.0913 (alat units)  1.6122 (a.u.) for type    4
     new r_m :   0.0883 (alat units)  1.5593 (a.u.) for type    5

     Initial potential from superposition of free atoms

     starting charge     266.9726, renormalised to     277.0000

     negative rho (up, down):  9.216E-01 9.216E-01
     Starting wfcs are  287 randomized atomic wfcs

     Self-consistent Calculation

     iteration #  1     ecut=   120.00 Ry     beta= 0.70
     Davidson diagonalization with overlap
     ethr =  1.00E-02,  avg # of iterations =  2.0

     negative rho (up, down):  9.968E-01 9.965E-01

     total energy              =   -2930.55643073 Ry
     estimated scf accuracy    <     276.66563015 Ry

     total magnetization       =    -0.00 Bohr mag/cell
     absolute magnetization    =     0.09 Bohr mag/cell

[...]

     iteration # 12     ecut=   120.00 Ry     beta= 0.70
     Davidson diagonalization with overlap
     c_bands:  1 eigenvalues not converged
     c_bands:  1 eigenvalues not converged
     ethr =  2.22E-06,  avg # of iterations = 20.0

[...]

     Magnetic moment per site  (integrated on atomic sphere of radius R)
     atom   1 (R=0.112)  charge=  9.4636  magn= -0.0002
     atom   2 (R=0.112)  charge=  9.0581  magn=  0.0001
     atom   3 (R=0.112)  charge=  9.0568  magn= -0.0001
     atom   4 (R=0.112)  charge=  9.0584  magn= -0.0000
     atom   5 (R=0.112)  charge=  9.0669  magn= -0.0002
     atom   6 (R=0.110)  charge= 10.3486  magn=  0.0000
     atom   7 (R=0.110)  charge= 10.3554  magn= -0.0001
     atom   8 (R=0.088)  charge=  8.1283  magn= -0.0001
     atom   9 (R=0.088)  charge=  8.1312  magn= -0.0001
     atom  10 (R=0.088)  charge=  8.1074  magn= -0.0004
     atom  11 (R=0.088)  charge=  8.1060  magn= -0.0002
     atom  12 (R=0.088)  charge=  8.1088  magn= -0.0007
     atom  13 (R=0.088)  charge=  8.1054  magn=  0.0000
     atom  14 (R=0.088)  charge=  8.1071  magn= -0.0005
     atom  15 (R=0.088)  charge=  8.1027  magn= -0.0003
     atom  16 (R=0.088)  charge=  8.1058  magn= -0.0013
     atom  17 (R=0.088)  charge=  8.1123  magn= -0.0009
     atom  18 (R=0.091)  charge=  7.7809  magn=  0.0001
     atom  19 (R=0.091)  charge=  7.5871  magn= -0.0008
     atom  20 (R=0.091)  charge=  7.5854  magn=  0.0000
     atom  21 (R=0.091)  charge=  7.5842  magn= -0.0011
     atom  22 (R=0.091)  charge=  7.5910  magn= -0.0002
     atom  23 (R=0.088)  charge=  1.0963  magn=  0.0000

     End of self-consistent calculation

 ------ SPIN UP ------------

          k = 0.0000 0.0000 0.0000 ( 61588 PWs)   bands (ev):

   -60.7848 -60.7637 -60.7373 -60.7194 -60.6872 -60.6841 -60.6408 -60.6405
   -60.5387 -60.5038 -54.3908 -54.3412 -54.2535 -54.2078 -52.6832 -46.3320
   -46.2461 -41.5980 -41.5881 -41.4841 -41.4788 -39.7917 -27.7810 -27.7604
   -27.6911 -27.6761 -27.5969 -27.5735 -27.4528 -27.4422 -27.4180 -27.3377
   -27.3124 -27.2706 -27.2556 -27.2377 -27.2173 -27.1712 -27.1636 -27.1506
[...]

     convergence has been achieved in   4 iterations

     negative rho (up, down):  9.088E-01 9.088E-01

     Forces acting on atoms (cartesian axes, Ry/au):

     atom    1 type  1   force =    -0.00102654   -0.02559936    0.00531025
     atom    2 type  1   force =    -0.11636343   -0.01181267    0.00542196
     atom    3 type  1   force =    -0.11098416    0.00856361    0.01065214
     atom    4 type  1   force =     0.11584624   -0.01127941    0.00131106
     atom    5 type  1   force =     0.11188792    0.01477832    0.00578369
     atom    6 type  2   force =    -0.01039772   -0.02322234    0.00040214
     atom    7 type  2   force =    -0.01998598    0.01018217   -0.01522464
     atom    8 type  3   force =    -0.10865222    0.00805923    0.00113251
     atom    9 type  3   force =     0.04506248   -0.07906703   -0.10697512
     atom   10 type  3   force =    -0.02181705   -0.02905832   -0.06213639
     atom   11 type  3   force =    -0.02227194   -0.03352411    0.05508924
     atom   12 type  3   force =    -0.01966859    0.03489155   -0.05999165
     atom   13 type  3   force =    -0.00425400    0.03047356    0.06266915
     atom   14 type  3   force =     0.02209909   -0.02772876   -0.06153610
     atom   15 type  3   force =     0.01968294   -0.03838973    0.05740700
     atom   16 type  3   force =     0.01876095    0.03483206   -0.05535182
     atom   17 type  3   force =     0.00555046    0.04501406    0.06178401
     atom   18 type  4   force =    -0.00245022    0.02704070   -0.01086887
     atom   19 type  4   force =    -0.12756875   -0.00446952   -0.11882066
     atom   20 type  4   force =    -0.12734281    0.00667234    0.11360336
     atom   21 type  4   force =     0.12828278   -0.00655470   -0.12278516
     atom   22 type  4   force =     0.13881979    0.00126894    0.10065318
     atom   23 type  5   force =     0.08679077    0.06892939    0.13247071
     The non-local contrib.  to forces
     atom    1 type  1   force =     0.00351033   -0.01453046    0.02791608
     atom    2 type  1   force =    -0.24598171   -0.16276100    0.02127188
     atom    3 type  1   force =    -0.24156453    0.15370609   -0.01348673
     atom    4 type  1   force =     0.24572955   -0.16154527    0.03185858
     atom    5 type  1   force =     0.26247871    0.12904904    0.00876813
     atom    6 type  2   force =     0.01026012   -0.04849365   -0.05890428
     atom    7 type  2   force =     0.00423426    0.08956256    0.06807313
     atom    8 type  3   force =    -0.25479475    0.00664777    0.00757232
     atom    9 type  3   force =     0.17017260   -0.02057869   -0.04594897
     atom   10 type  3   force =    -0.21254676    0.00288249   -0.21157665
     atom   11 type  3   force =    -0.21633813    0.00671005    0.19418884
     atom   12 type  3   force =    -0.20419532   -0.02186276   -0.17798674
     atom   13 type  3   force =    -0.19883425   -0.00591782    0.20174423
     atom   14 type  3   force =     0.21377728    0.00852321   -0.21852361
     atom   15 type  3   force =     0.22003904    0.00378584    0.18112068
     atom   16 type  3   force =     0.19628287   -0.02068720   -0.18905479
     atom   17 type  3   force =     0.22551375   -0.02031995    0.16508923
     atom   18 type  4   force =    -0.00312639    0.05864245   -0.05617270
     atom   19 type  4   force =     0.05873918    0.01058783    0.07215164
     atom   20 type  4   force =     0.05072885   -0.01967582   -0.06615202
     atom   21 type  4   force =    -0.06226887    0.02190928    0.07014738
     atom   22 type  4   force =    -0.04688324   -0.01377067   -0.07359485
     atom   23 type  5   force =    -0.04358510   -0.03296171   -0.03522612
     The ionic contribution  to forces
     atom    1 type  1   force =    -0.37571404   -4.86644661   14.12797464
     atom    2 type  1   force =   -39.73985488   -6.16735713    0.73948172
     atom    3 type  1   force =   -39.73750673    6.19659059   -0.77890975
     atom    4 type  1   force =    39.57696917   -6.34049554    0.70144250
     atom    5 type  1   force =    39.40061181    6.61304045   -1.00282176
     atom    6 type  2   force =    -0.32919553   -3.79821036  -14.20354945
     atom    7 type  2   force =    -0.88099636    3.85656800   14.04364516
     atom    8 type  3   force =   -52.37954626    0.03959470   -0.13754222
     atom    9 type  3   force =    50.61396783   -0.86851884   -1.92858114
     atom   10 type  3   force =   -36.06806365   -2.09334159  -23.04629681
     atom   11 type  3   force =   -35.16519796   -0.85615469   22.07879562
     atom   12 type  3   force =   -35.25846604    0.81319191  -22.10569832
     atom   13 type  3   force =   -36.10147954    2.24431114   23.08446094
     atom   14 type  3   force =    35.98406618   -2.13929056  -23.10240521
     atom   15 type  3   force =    35.01361065   -0.93843431   22.16679037
     atom   16 type  3   force =    35.16277513    0.86489309  -22.16619360
     atom   17 type  3   force =    35.80389624    2.55232865   23.33591522
     atom   18 type  4   force =    -0.29057079    4.52501553  -14.13715328
     atom   19 type  4   force =   -35.91658794    0.94262459  -25.48943568
     atom   20 type  4   force =   -35.96681697   -0.99336612   25.52407477
     atom   21 type  4   force =    35.79173615    0.93993818  -25.68649093
     atom   22 type  4   force =    35.32040732   -1.32796966   26.44160295
     atom   23 type  5   force =     5.54195621    0.80148856    1.54089426
     The local contribution  to forces
     atom    1 type  1   force =     0.36896786    4.85407268  -14.13359790
     atom    2 type  1   force =    39.88254045    6.32286245   -0.72624921
     atom    3 type  1   force =    39.88084010   -6.34654650    0.83398881
     atom    4 type  1   force =   -39.72250923    6.49643730   -0.70491983
     atom    5 type  1   force =   -39.57063588   -6.72817300    1.02518380
     atom    6 type  2   force =     0.30903372    3.83094779   14.28168799
     atom    7 type  2   force =     0.84770625   -3.93384490  -14.10715219
     atom    8 type  3   force =    52.56156507   -0.03924512    0.16096323
     atom    9 type  3   force =   -50.77015655    0.80524538    1.89371501
     atom   10 type  3   force =    36.28130753    2.05637720   23.19443185
     atom   11 type  3   force =    35.38443338    0.80193939  -22.23594266
     atom   12 type  3   force =    35.46271897   -0.74927698   22.22227708
     atom   13 type  3   force =    36.31324104   -2.19233096  -23.24054176
     atom   14 type  3   force =   -36.20231779    2.10113883   23.26101497
     atom   15 type  3   force =   -35.24269959    0.88750718  -22.30712007
     atom   16 type  3   force =   -35.36651714   -0.80348240   22.30282985
     atom   17 type  3   force =   -36.05563416   -2.46835713  -23.45263172
     atom   18 type  4   force =     0.28846083   -4.56321211   14.20029456
     atom   19 type  4   force =    35.74153570   -0.95871223   25.29697486
     atom   20 type  4   force =    35.79490842    1.01872645  -25.35629258
     atom   21 type  4   force =   -35.61690074   -0.97063021   25.49651721
     atom   22 type  4   force =   -35.14001904    1.33861641  -26.28600643
     atom   23 type  5   force =    -5.41071913   -0.69990476   -1.36825202
     The core correction contribution to forces
     atom    1 type  1   force =     0.00112509    0.00095241   -0.00101388
     atom    2 type  1   force =    -0.01177358   -0.00189047    0.00041657
     atom    3 type  1   force =    -0.01255024    0.00220480   -0.00093446
     atom    4 type  1   force =     0.01275314   -0.00153125    0.00230848
     atom    5 type  1   force =     0.01435445    0.00018429    0.00039024
     atom    6 type  2   force =    -0.00043480    0.00257296    0.00267241
     atom    7 type  2   force =     0.00073466   -0.00468284   -0.00280251
     atom    8 type  3   force =    -0.03066998    0.00073429    0.00021539
     atom    9 type  3   force =     0.01911194   -0.00411703   -0.00828803
     atom   10 type  3   force =    -0.02199601    0.00922131   -0.01623163
     atom   11 type  3   force =    -0.02405648    0.00920172    0.01797928
     atom   12 type  3   force =    -0.02141131   -0.00996633   -0.01528491
     atom   13 type  3   force =    -0.02032405   -0.01030809    0.01573405
     atom   14 type  3   force =     0.02132570    0.00899546   -0.01666338
     atom   15 type  3   force =     0.02418933    0.00925687    0.01513582
     atom   16 type  3   force =     0.02110587   -0.00899056   -0.01672036
     atom   17 type  3   force =     0.02382099   -0.00939834    0.01415522
     atom   18 type  4   force =     0.00023294   -0.00309306    0.00282107
     atom   19 type  4   force =    -0.00955900   -0.00004506   -0.00968679
     atom   20 type  4   force =    -0.00923044    0.00074124    0.00920105
     atom   21 type  4   force =     0.00967083   -0.00060926   -0.00964452
     atom   22 type  4   force =     0.00894510    0.00059213    0.00941990
     atom   23 type  5   force =     0.00000000    0.00000000    0.00000000
     The Hubbard contrib.    to forces
     atom    1 type  1   force =     0.00000000    0.00000000    0.00000000
     atom    2 type  1   force =     0.00000000    0.00000000    0.00000000
     atom    3 type  1   force =     0.00000000    0.00000000    0.00000000
     atom    4 type  1   force =     0.00000000    0.00000000    0.00000000
     atom    5 type  1   force =     0.00000000    0.00000000    0.00000000
     atom    6 type  2   force =     0.00000000    0.00000000    0.00000000
     atom    7 type  2   force =     0.00000000    0.00000000    0.00000000
     atom    8 type  3   force =     0.00000000    0.00000000    0.00000000
     atom    9 type  3   force =     0.00000000    0.00000000    0.00000000
     atom   10 type  3   force =     0.00000000    0.00000000    0.00000000
     atom   11 type  3   force =     0.00000000    0.00000000    0.00000000
     atom   12 type  3   force =     0.00000000    0.00000000    0.00000000
     atom   13 type  3   force =     0.00000000    0.00000000    0.00000000
     atom   14 type  3   force =     0.00000000    0.00000000    0.00000000
     atom   15 type  3   force =     0.00000000    0.00000000    0.00000000
     atom   16 type  3   force =     0.00000000    0.00000000    0.00000000
     atom   17 type  3   force =     0.00000000    0.00000000    0.00000000
     atom   18 type  4   force =     0.00000000    0.00000000    0.00000000
     atom   19 type  4   force =     0.00000000    0.00000000    0.00000000
     atom   20 type  4   force =     0.00000000    0.00000000    0.00000000
     atom   21 type  4   force =     0.00000000    0.00000000    0.00000000
     atom   22 type  4   force =     0.00000000    0.00000000    0.00000000
     atom   23 type  5   force =     0.00000000    0.00000000    0.00000000
     The SCF correction term to forces
     atom    1 type  1   force =     0.00090901    0.00033680   -0.01452459
     atom    2 type  1   force =    -0.00146892   -0.00268233   -0.02805491
     atom    3 type  1   force =    -0.00037798    0.00259281   -0.02856164
     atom    4 type  1   force =     0.00272840   -0.00416047   -0.02793457
     atom    5 type  1   force =     0.00490363    0.00066174   -0.02429263
     atom    6 type  2   force =    -0.00023644   -0.01005490   -0.02006043
     atom    7 type  2   force =     0.00816000    0.00256353   -0.01554414
     atom    8 type  3   force =    -0.00538151    0.00031178   -0.02863212
     atom    9 type  3   force =     0.01179144    0.00888634   -0.01642790
     atom   10 type  3   force =    -0.00069338   -0.00421355    0.01898095
     atom   11 type  3   force =    -0.00128796    0.00476361    0.00151226
     atom   12 type  3   force =     0.00150990    0.00278989    0.01814533
     atom   13 type  3   force =     0.00296759   -0.00529653    0.00271579
     atom   14 type  3   force =     0.00507250   -0.00711152    0.01648522
     atom   15 type  3   force =     0.00436829   -0.00052113    0.00292429
     atom   16 type  3   force =     0.00493901    0.00308331    0.01523118
     atom   17 type  3   force =     0.00777843   -0.00925498    0.00070016
     atom   18 type  4   force =     0.00237796    0.00967208   -0.01921442
     atom   19 type  4   force =    -0.00187191    0.00105953    0.01261940
     atom   20 type  4   force =     0.00289212    0.00023076    0.00421623
     atom   21 type  4   force =     0.00587021    0.00282149    0.00812979
     atom   22 type  4   force =    -0.00380556    0.00378491    0.01067571
     atom   23 type  5   force =    -0.00103643    0.00029148   -0.00350131

     Total force =     0.527315     Total SCF correction =     0.088917
     SCF correction compared to forces is large: reduce conv_thr to get better values

     Computing stress (Cartesian axis) and pressure

     negative rho (up, down):  9.088E-01 9.088E-01
          total   stress  (Ry/bohr**3)                   (kbar)     P=       87.06
   0.00066047   0.00001478   0.00004050           97.16        2.17        5.96
   0.00001478   0.00068556   0.00002526            2.17      100.85        3.72
   0.00004050   0.00002526   0.00042945            5.96        3.72       63.17

     Entering Dynamics:    iteration =    20
                           time      =   0.0041 pico-seconds

ATOMIC_POSITIONS (angstrom)
Hf            2.6709644567        2.8276636463        6.6053181245
Hf            1.2525201090        1.2868941023        5.0597518493
Hf            1.2550704065        7.3906842036        5.0894273751
Hf            4.0892498271        1.2869029543        5.0597528945
Hf            4.0867293741        7.3907489883        5.0894124870
Nb            2.6711308734        2.7974816328        3.5172864440
Nb            2.6704612589        5.8774409606        6.6360622931
Ta            1.2089509609        4.3418308111        5.0724907332
Ta            4.1179421869        4.3287554137        5.0501208252
Ta            1.3078327104        1.3145105929        2.0594668830
Ta            1.3034153444        1.3087629808        8.0965504308
Ta            1.3046801699        7.3770151391        2.0469399541
Ta            1.3085274806        7.3661919701        8.0880488385
Ta            4.0338728159        1.3145929543        2.0594587505
Ta            4.0383262385        1.3087570279        8.0965731602
Ta            4.0370841623        7.3769755354        2.0469821597
Ta            4.0332735966        7.3662653102        8.0880097186
Zr            2.6709284049        5.8676312565        3.5285133669
Zr            1.2418050915        4.3227562214        1.9987040613
Zr            1.2383661798        4.3550053681        8.1536809303
Zr            4.0999892801        4.3227408563        1.9985620585
Zr            4.1035510250        4.3549522253        8.1535570730
H             4.9926484454        5.0670443447        6.3707091078

     kinetic energy (Ekin) =           4.00147045 Ry
     temperature           =       19144.91563508 K
     Ekin + Etot (const)   =       -2939.04639867 Ry
     Ions kinetic stress =           70.67 (kbar)
                                     53.20          44.40          80.20
                                     44.40          37.24          67.23
                                     80.20          67.23         121.57

     Linear momentum :    0.0000000000    0.0000000000   -0.0000000000

     The maximum number of steps has been reached.

     End of molecular dynamics calculation

     diffusion coefficients :
     atom     1   D =       0.00000001 cm^2/s
     atom     2   D =       0.00000001 cm^2/s
     atom     3   D =       0.00000001 cm^2/s
     atom     4   D =       0.00000003 cm^2/s
     atom     5   D =       0.00000003 cm^2/s
     atom     6   D =       0.00000002 cm^2/s
     atom     7   D =       0.00000001 cm^2/s
     atom     8   D =       0.00000001 cm^2/s
     atom     9   D =       0.00000308 cm^2/s
     atom    10   D =       0.00000000 cm^2/s
     atom    11   D =       0.00000002 cm^2/s
     atom    12   D =       0.00000001 cm^2/s
     atom    13   D =       0.00000002 cm^2/s
     atom    14   D =       0.00000001 cm^2/s
     atom    15   D =       0.00000002 cm^2/s
     atom    16   D =       0.00000001 cm^2/s
     atom    17   D =       0.00000003 cm^2/s
     atom    18   D =       0.00000002 cm^2/s
     atom    19   D =       0.00000003 cm^2/s
     atom    20   D =       0.00000008 cm^2/s
     atom    21   D =       0.00000007 cm^2/s
     atom    22   D =       0.00000013 cm^2/s
     atom    23   D =       0.00032378 cm^2/s

     < D > =       0.00001424 cm^2/s

     Writing all to output data dir outdir/pwscf.save/

     General routines

     Parallel routines

   This run was terminated on:   0:10: 6  16Jun2023

   JOB DONE.