     Program PWSCF v.7.2 starts on 12Jun2023 at 14:19:23

     Reading input from md_data/md_Hf5Nb2Ta10Zr5H_8steps_2000eV_incident75_polar0.in
Warning: card &CELL ignored
Warning: card / ignored

     Current dimensions of program PWSCF are:
     Max number of different atomic species (ntypx) = 10
     Max number of k-points (npk) =  40000
     Max angular momentum in pseudopotentials (lmaxx) =  4

     gamma-point specific algorithms are used

     R & G space division:  proc/nbgrp/npool/nimage =      42
     Subspace diagonalization in iterative solution of the eigenvalue problem:
     one sub-group per band group will be used

     Using Slab Decomposition

     bravais-lattice index     =            0
     lattice parameter (alat)  =      17.6500  a.u.
     unit-cell volume          =    5552.8853 (a.u.)^3
     number of atoms/cell      =           23
     number of atomic types    =            5
     number of electrons       =       277.00
     number of Kohn-Sham states=          167
     kinetic-energy cutoff     =     120.0000  Ry
     charge density cutoff     =     480.0000  Ry
     scf convergence threshold =      1.0E-03
     mixing beta               =       0.7000
     number of iterations used =            8  TF        mixing
     energy convergence thresh.=      0.0E+00
     force convergence thresh. =      0.0E+00
     Exchange-correlation=  SLA  PW   PBX  PBC
                           (   1   4   3   4   0   0   0)
     nstep                     =            8

     celldm(1)=  17.650041  celldm(2)=   0.000000  celldm(3)=   0.000000
     celldm(4)=   0.000000  celldm(5)=   0.000000  celldm(6)=   0.000000

     crystal axes: (cart. coord. in units of alat)
               a(1) = (   1.000000   0.000000   0.000000 )
               a(2) = (   0.000000   0.929336   0.000000 )
               a(3) = (   0.000000   0.000000   1.086698 )

     reciprocal axes: (cart. coord. in units 2 pi/alat)
               b(1) = (  1.000000  0.000000  0.000000 )
               b(2) = (  0.000000  1.076037  0.000000 )
               b(3) = (  0.000000  0.000000  0.920219 )

     PseudoPot. # 1 for Hf read from file:
     q-e/pseudo/hf_pbe_v1.uspp.F.UPF
     MD5 check sum: 8ee9378dfe14276e333edf04c5e4aa26
     Pseudo is Ultrasoft + core correction, Zval = 12.0
     Generated by new atomic code, or converted to UPF format
     Using radial grid of  921 points,  8 beta functions with:
                l(1) =   0
                l(2) =   0
                l(3) =   0
                l(4) =   1
                l(5) =   1
                l(6) =   2
                l(7) =   2
                l(8) =   3
     Q(r) pseudized with  6 coefficients,  rinner =    1.200   1.200   1.200
                                                       1.200   1.200   1.200
                                                       1.200

     PseudoPot. # 2 for Nb read from file:
     q-e/pseudo/nb_pbe_v1.uspp.F.UPF
     MD5 check sum: 573aab8a2fa660278ed4a62cd769473f
     Pseudo is Ultrasoft + core correction, Zval = 13.0
     Generated by new atomic code, or converted to UPF format
     Using radial grid of  887 points,  6 beta functions with:
                l(1) =   0
                l(2) =   0
                l(3) =   1
                l(4) =   1
                l(5) =   2
                l(6) =   2
     Q(r) pseudized with  6 coefficients,  rinner =    1.000   1.000   1.000
                                                       1.000   1.000

     PseudoPot. # 3 for Ta read from file:
     q-e/pseudo/ta_pbe_v1.uspp.F.UPF
     MD5 check sum: f8bbe9446314a3b8ea5d9f3e3836c939
     Pseudo is Ultrasoft + core correction, Zval = 13.0
     Generated by new atomic code, or converted to UPF format
     Using radial grid of  921 points,  7 beta functions with:
                l(1) =   0
                l(2) =   0
                l(3) =   1
                l(4) =   1
                l(5) =   2
                l(6) =   2
                l(7) =   3
     Q(r) pseudized with  6 coefficients,  rinner =    1.300   1.300   1.300
                                                       1.300   1.300   1.300
                                                       1.300

     PseudoPot. # 4 for Zr read from file:
     q-e/pseudo/zr_pbe_v1.uspp.F.UPF
     MD5 check sum: 5db81b1e868ab7776c4564c113de050b
     Pseudo is Ultrasoft + core correction, Zval = 12.0
     Generated by new atomic code, or converted to UPF format
     Using radial grid of  887 points,  6 beta functions with:
                l(1) =   0
                l(2) =   0
                l(3) =   1
                l(4) =   1
                l(5) =   2
                l(6) =   2
     Q(r) pseudized with  6 coefficients,  rinner =    1.200   1.200   1.200
                                                       1.200   1.200

     PseudoPot. # 5 for H  read from file:
     q-e/pseudo/h_pbe_v1.4.uspp.F.UPF
     MD5 check sum: 761ae9a214b05c3daf00ab9f6b793d6f
     Pseudo is Ultrasoft, Zval =  1.0
     Generated by new atomic code, or converted to UPF format
     Using radial grid of  615 points,  2 beta functions with:
                l(1) =   0
                l(2) =   0
     Q(r) pseudized with  8 coefficients,  rinner =    0.700

     atomic species   valence    mass     pseudopotential
        Hf            12.00   178.49000     Hf( 1.00)
        Nb            13.00    92.90637     Nb( 1.00)
        Ta            13.00   180.94788     Ta( 1.00)
        Zr            12.00    91.22400     Zr( 1.00)
        H              1.00     2.01400     H ( 1.00)

     Starting magnetic structure
     atomic species   magnetization
        Hf           0.000
        Nb           0.000
        Ta           0.000
        Zr           0.000
        H            0.000

     No symmetry found

   Cartesian axes

     site n.     atom                  positions (alat units)
         1           Hf  tau(   1) = (   0.2858672   0.3026898   0.7070626  )
         2           Hf  tau(   2) = (   0.1341532   0.1377178   0.5415917  )
         3           Hf  tau(   3) = (   0.1344204   0.7911996   0.5447610  )
         4           Hf  tau(   4) = (   0.4375813   0.1377178   0.5415917  )
         5           Hf  tau(   5) = (   0.4373140   0.7911996   0.5447610  )
         6           Nb  tau(   6) = (   0.2858672   0.2994572   0.3764008  )
         7           Nb  tau(   7) = (   0.2858672   0.6291626   0.7103852  )
         8           Ta  tau(   8) = (   0.1294832   0.4647675   0.5429471  )
         9           Ta  tau(   9) = (   0.4422513   0.4647675   0.5429471  )
        10           Ta  tau(  10) = (   0.1399628   0.1406984   0.2204260  )
        11           Ta  tau(  11) = (   0.1394848   0.1400847   0.8666573  )
        12           Ta  tau(  12) = (   0.1396156   0.7897030   0.2190832  )
        13           Ta  tau(  13) = (   0.1400119   0.7885528   0.8657390  )
        14           Ta  tau(  14) = (   0.4317717   0.1406984   0.2204260  )
        15           Ta  tau(  15) = (   0.4322496   0.1400847   0.8666573  )
        16           Ta  tau(  16) = (   0.4321189   0.7897030   0.2190832  )
        17           Ta  tau(  17) = (   0.4317226   0.7885528   0.8657390  )
        18           Zr  tau(  18) = (   0.2858672   0.6280820   0.3776642  )
        19           Zr  tau(  19) = (   0.1331729   0.4627493   0.2141328  )
        20           Zr  tau(  20) = (   0.1328036   0.4661802   0.8725649  )
        21           Zr  tau(  21) = (   0.4385616   0.4627493   0.2141328  )
        22           Zr  tau(  22) = (   0.4389309   0.4661802   0.8725649  )
        23           H   tau(  23) = (   0.4976729   0.6715045   0.5430600  )

     number of k points=     1  Gaussian smearing, width (Ry)=  0.0220
                       cart. coord. in units 2pi/alat
        k(    1) = (   0.0000000   0.0000000   0.0000000), wk =   1.0000000

     Check: negative core charge=   -0.000002
     Generating pointlists ...
     new r_m :   0.0553 (alat units)  0.9761 (a.u.) for type    1
     new r_m :   0.1098 (alat units)  1.9374 (a.u.) for type    2
     new r_m :   0.0883 (alat units)  1.5583 (a.u.) for type    3
     new r_m :   0.1112 (alat units)  1.9625 (a.u.) for type    4
     new r_m :   0.0553 (alat units)  0.9761 (a.u.) for type    5

     Initial potential from superposition of free atoms

     starting charge     266.9726, renormalised to     277.0000

     negative rho (up, down):  9.211E-01 9.211E-01
     Starting wfcs are  287 randomized atomic wfcs

     Self-consistent Calculation

     iteration #  1     ecut=   120.00 Ry     beta= 0.70
     Davidson diagonalization with overlap
     ethr =  1.00E-02,  avg # of iterations =  2.0

     negative rho (up, down):  9.927E-01 9.923E-01

     total energy              =   -2930.58431981 Ry
     estimated scf accuracy    <     275.85505655 Ry

     total magnetization       =    -0.00 Bohr mag/cell
     absolute magnetization    =     0.09 Bohr mag/cell

[...]

     Magnetic moment per site  (integrated on atomic sphere of radius R)
     atom   1 (R=0.055)  charge=  2.8629    0.0000
     atom   2 (R=0.055)  charge=  2.8460   -0.0000
     atom   3 (R=0.055)  charge=  2.8453    0.0000
     atom   4 (R=0.055)  charge=  2.8470   -0.0000
     atom   5 (R=0.055)  charge=  2.8630   -0.0000
     atom   6 (R=0.110)  charge= 10.3436   -0.0003
     atom   7 (R=0.110)  charge= 10.3481   -0.0001
     atom   8 (R=0.088)  charge=  8.1217    0.0000
     atom   9 (R=0.088)  charge=  8.1184    0.0002
     atom  10 (R=0.088)  charge=  8.1018   -0.0001
     atom  11 (R=0.088)  charge=  8.0980   -0.0008
     atom  12 (R=0.088)  charge=  8.1012   -0.0003
     atom  13 (R=0.088)  charge=  8.1020   -0.0001
     atom  14 (R=0.088)  charge=  8.1021   -0.0003
     atom  15 (R=0.088)  charge=  8.0979   -0.0004
     atom  16 (R=0.088)  charge=  8.1038   -0.0006
     atom  17 (R=0.088)  charge=  8.1015   -0.0003
     atom  18 (R=0.111)  charge=  9.4520   -0.0000
     atom  19 (R=0.111)  charge=  9.0008    0.0002
     atom  20 (R=0.111)  charge=  8.9923    0.0003
     atom  21 (R=0.111)  charge=  9.0060    0.0001
     atom  22 (R=0.111)  charge=  8.9943    0.0003
     atom  23 (R=0.055)  charge=  0.8274   -0.0000

     End of self-consistent calculation

 ------ SPIN UP ------------

          k = 0.0000 0.0000 0.0000 ( 61588 PWs)   bands (ev):

   -60.7790 -60.7747 -60.7334 -60.7312 -60.7002 -60.6813 -60.6572 -60.6375
   -60.5822 -60.5531 -54.3879 -54.3452 -54.2522 -53.8434 -52.6875 -46.2860
   -46.2489 -41.6527 -41.6283 -41.5524 -41.5452 -39.8274 -27.7803 -27.7715
   -27.6944 -27.6827 -27.6003 -27.5836 -27.4721 -27.4616 -27.4432 -27.3309
   -27.3161 -27.2652 -27.2618 -27.2497 -27.2172 -27.1990 -27.1858 -27.1611
   -27.1494 -27.1337 -27.1089 -27.0794 -26.9553 -26.9523 -26.9407 -26.9363
   -26.8834 -26.8785 -26.8540 -26.8413 -24.2483 -24.0584 -23.6804 -23.5489
   -23.3074 -23.1739 -23.1125 -23.0477 -22.9246 -22.9197 -22.7252 -22.5713
   -22.5100 -22.4506 -22.3856 -22.3128 -22.2629 -22.1294 -21.7462 -21.6909
   -21.6172 -20.2140 -19.9293 -19.8552 -19.8544 -19.6195 -19.6080 -19.6036
   -19.5905 -19.5752 -19.5365 -19.3862 -19.3561 -18.1770 -17.9768 -17.8265
[...]
     absolute magnetization    =     0.01 Bohr mag/cell

     convergence has been achieved in   6 iterations

     negative rho (up, down):  9.091E-01 9.091E-01

     Forces acting on atoms (cartesian axes, Ry/au):

     atom    1 type  1   force =    -0.02533304   -0.03010643    0.01973739
     atom    2 type  1   force =    -0.13003063   -0.01360832   -0.00022598
     atom    3 type  1   force =    -0.12194420    0.01338239    0.00473558
     atom    4 type  1   force =     0.16711696   -0.00298348    0.00136481
     atom    5 type  1   force =     0.11649681   -0.00431247    0.00520142
     atom    6 type  2   force =    -0.02059237   -0.01981639    0.00134294
     atom    7 type  2   force =     0.00280160    0.00418119   -0.01229251
     atom    8 type  3   force =    -0.10991747    0.00187082   -0.00360264
     atom    9 type  3   force =     0.15328957    0.02231639   -0.00481380
     atom   10 type  3   force =    -0.02219103   -0.02858461   -0.06027590
     atom   11 type  3   force =    -0.01844038   -0.03276771    0.05397318
     atom   12 type  3   force =    -0.01569673    0.03625935   -0.05412921
     atom   13 type  3   force =    -0.01527041    0.03120152    0.05915765
     atom   14 type  3   force =     0.02348974   -0.03416949   -0.06024217
     atom   15 type  3   force =     0.02256975   -0.04091262    0.05484586
     atom   16 type  3   force =     0.01621558    0.03720621   -0.05833761
     atom   17 type  3   force =     0.01636120    0.03200686    0.06163529
     atom   18 type  4   force =     0.00238785    0.01201010   -0.00772396
     atom   19 type  4   force =    -0.12747228   -0.00394571   -0.11542975
     atom   20 type  4   force =    -0.13018849    0.00645822    0.11595094
     atom   21 type  4   force =     0.12837827   -0.00121072   -0.11725077
     atom   22 type  4   force =     0.13130220    0.00967365    0.11879233
     atom   23 type  5   force =    -0.04333250    0.00585124   -0.00241308
     The non-local contrib.  to forces
     atom    1 type  1   force =    -0.00571776   -0.00022813    0.01935682
     atom    2 type  1   force =    -0.24446669   -0.16075764    0.01935711
     atom    3 type  1   force =    -0.25247161    0.15289484   -0.02627748
     atom    4 type  1   force =     0.10389369   -0.21544858    0.01302912
     atom    5 type  1   force =     0.25587296    0.14220232   -0.02530133
     atom    6 type  2   force =    -0.01257900   -0.04214792   -0.06102285
     atom    7 type  2   force =     0.00244790    0.06314643    0.06280995
     atom    8 type  3   force =    -0.26645925   -0.00303476   -0.00368946
     atom    9 type  3   force =     0.27020139   -0.02411544    0.01309202
     atom   10 type  3   force =    -0.22330104    0.00676297   -0.20939126
     atom   11 type  3   force =    -0.23066349    0.00723528    0.19324424
     atom   12 type  3   force =    -0.19130537   -0.01668104   -0.17406405
     atom   13 type  3   force =    -0.19770168    0.00157588    0.20600879
     atom   14 type  3   force =     0.23223919    0.01435803   -0.20456562
     atom   15 type  3   force =     0.24821196    0.01889217    0.18129791
     atom   16 type  3   force =     0.19282498   -0.01611980   -0.18804595
     atom   17 type  3   force =     0.19789271    0.00020561    0.21644383
     atom   18 type  4   force =    -0.00096145    0.05355367   -0.06488168
     atom   19 type  4   force =     0.05976041    0.01212027    0.06938999
     atom   20 type  4   force =     0.05606316   -0.01202089   -0.06404406
     atom   21 type  4   force =    -0.06855171    0.01682450    0.07004242
     atom   22 type  4   force =    -0.06247640   -0.00709049   -0.06490017
     atom   23 type  5   force =    -0.02776726   -0.00536987   -0.00211269
     The ionic contribution  to forces
     atom    1 type  1   force =    -0.68216745   -4.65013639   14.69671020
     atom    2 type  1   force =   -39.74007341   -6.33427415    0.76675010
     atom    3 type  1   force =   -39.52360830    5.93955195   -0.72020328
     atom    4 type  1   force =    38.53345024   -7.22529023    0.68880905
     atom    5 type  1   force =    39.50944025    5.28029690   -0.72833021
     atom    6 type  2   force =    -0.70377743   -3.64498126  -14.65138281
     atom    7 type  2   force =     0.33364434    3.63423513   13.62980341
     atom    8 type  3   force =   -52.23963295    0.48857094   -0.07011590
     atom    9 type  3   force =    51.59616769    2.13049503   -0.00934226
     atom   10 type  3   force =   -36.06532606   -2.16884150  -23.19748323
     atom   11 type  3   force =   -35.13424177   -0.92349346   22.20964272
     atom   12 type  3   force =   -35.18907706    0.70674339  -22.12870516
     atom   13 type  3   force =   -35.97587508    2.08624237   23.06158605
     atom   14 type  3   force =    35.85335153   -2.27378396  -23.44713393
     atom   15 type  3   force =    34.88240273   -1.03846001   22.49388868
     atom   16 type  3   force =    35.15991980    0.59402831  -22.09912450
     atom   17 type  3   force =    35.93894019    1.96277375   23.03507826
     atom   18 type  4   force =     0.30904568    4.41927210  -13.58810839
     atom   19 type  4   force =   -35.88745413    1.08784277  -25.59880776
     atom   20 type  4   force =   -35.86252416   -0.81807775   25.57796362
     atom   21 type  4   force =    35.82708564    1.29753610  -25.65747471
     atom   22 type  4   force =    35.79179823   -0.59628686   25.62667398
     atom   23 type  5   force =     3.26851148    0.04603683    0.10930609
     The local contribution  to forces
     atom    1 type  1   force =     0.65294735    4.61947908  -14.68671889
     atom    2 type  1   force =    39.85049343    6.48903454   -0.78175234
     atom    3 type  1   force =    39.65788646   -6.08219814    0.75619675
     atom    4 type  1   force =   -38.45886001    7.46704173   -0.69404200
     atom    5 type  1   force =   -39.66917855   -5.43340486    0.76578158
     atom    6 type  2   force =     0.68729349    3.66986164   14.71288341
     atom    7 type  2   force =    -0.34435339   -3.69806587  -13.69189117
     atom    8 type  3   force =    52.42243668   -0.49083772    0.07554840
     atom    9 type  3   force =   -51.73247524   -2.09730910   -0.00402133
     atom   10 type  3   force =    36.28186708    2.12405128   23.36243916
     atom   11 type  3   force =    35.36768291    0.87418236  -22.36702354
     atom   12 type  3   force =    35.37970466   -0.64207083   22.26186052
     atom   13 type  3   force =    36.17769776   -2.04174927  -23.22392282
     atom   14 type  3   force =   -36.08345678    2.22125245   23.60189396
     atom   15 type  3   force =   -35.13390471    0.97077057  -22.63299028
     atom   16 type  3   force =   -35.36081335   -0.53053352   22.23386760
     atom   17 type  3   force =   -36.14613658   -1.91738286  -23.19694089
     atom   18 type  4   force =    -0.31761009   -4.46629420   13.64055070
     atom   19 type  4   force =    35.70259417   -1.10594787   25.42536843
     atom   20 type  4   force =    35.68164973    0.83150804  -25.41105326
     atom   21 type  4   force =   -35.63653945   -1.31957756   25.48243585
     atom   22 type  4   force =   -35.60730079    0.60783469  -25.45617750
     atom   23 type  5   force =    -3.28146933   -0.03146477   -0.10897277
     The core correction contribution to forces
     atom    1 type  1   force =     0.00341588    0.00206743   -0.00213549
     atom    2 type  1   force =    -0.01132414   -0.00118980    0.00087064
     atom    3 type  1   force =    -0.01275774    0.00277745   -0.00133278
     atom    4 type  1   force =    -0.00455957   -0.01266323   -0.00056052
     atom    5 type  1   force =     0.01292783    0.00106676   -0.00126987
     atom    6 type  2   force =     0.00021975    0.00211992    0.00234614
     atom    7 type  2   force =    -0.00002371   -0.00321701   -0.00256587
     atom    8 type  3   force =    -0.03279298    0.00050642   -0.00024752
     atom    9 type  3   force =     0.03090134    0.00164149    0.00104909
     atom   10 type  3   force =    -0.02349232    0.00961285   -0.01638870
     atom   11 type  3   force =    -0.02484790    0.00985308    0.01651783
     atom   12 type  3   force =    -0.02201081   -0.00890582   -0.01580911
     atom   13 type  3   force =    -0.02140679   -0.00824033    0.01730961
     atom   14 type  3   force =     0.02364161    0.01045079   -0.01491196
     atom   15 type  3   force =     0.02575590    0.01128414    0.01479876
     atom   16 type  3   force =     0.02125718   -0.00994615   -0.01546176
     atom   17 type  3   force =     0.02131470   -0.00908716    0.01624049
     atom   18 type  4   force =     0.00003998   -0.00305158    0.00317343
     atom   19 type  4   force =    -0.00966026   -0.00015668   -0.00933680
     atom   20 type  4   force =    -0.00962058    0.00022893    0.00914123
     atom   21 type  4   force =     0.01019724   -0.00040253   -0.00932031
     atom   22 type  4   force =     0.01015010   -0.00010578    0.00906265
     atom   23 type  5   force =     0.00000000    0.00000000    0.00000000
     The Hubbard contrib.    to forces
     atom    1 type  1   force =     0.00000000    0.00000000    0.00000000
     atom    2 type  1   force =     0.00000000    0.00000000    0.00000000
     atom    3 type  1   force =     0.00000000    0.00000000    0.00000000
     atom    4 type  1   force =     0.00000000    0.00000000    0.00000000
     atom    5 type  1   force =     0.00000000    0.00000000    0.00000000
     atom    6 type  2   force =     0.00000000    0.00000000    0.00000000
     atom    7 type  2   force =     0.00000000    0.00000000    0.00000000
     atom    8 type  3   force =     0.00000000    0.00000000    0.00000000
     atom    9 type  3   force =     0.00000000    0.00000000    0.00000000
     atom   10 type  3   force =     0.00000000    0.00000000    0.00000000
     atom   11 type  3   force =     0.00000000    0.00000000    0.00000000
     atom   12 type  3   force =     0.00000000    0.00000000    0.00000000
     atom   13 type  3   force =     0.00000000    0.00000000    0.00000000
     atom   14 type  3   force =     0.00000000    0.00000000    0.00000000
     atom   15 type  3   force =     0.00000000    0.00000000    0.00000000
     atom   16 type  3   force =     0.00000000    0.00000000    0.00000000
     atom   17 type  3   force =     0.00000000    0.00000000    0.00000000
     atom   18 type  4   force =     0.00000000    0.00000000    0.00000000
     atom   19 type  4   force =     0.00000000    0.00000000    0.00000000
     atom   20 type  4   force =     0.00000000    0.00000000    0.00000000
     atom   21 type  4   force =     0.00000000    0.00000000    0.00000000
     atom   22 type  4   force =     0.00000000    0.00000000    0.00000000
     atom   23 type  5   force =     0.00000000    0.00000000    0.00000000
     The SCF correction term to forces
     atom    1 type  1   force =     0.00566175   -0.00109155   -0.00708062
     atom    2 type  1   force =     0.01481298   -0.00622439   -0.00505686
     atom    3 type  1   force =     0.00847980    0.00055317   -0.00325298
     atom    4 type  1   force =    -0.00733458   -0.01642630   -0.00547620
     atom    5 type  1   force =     0.00690713    0.00572329   -0.00528411
     atom    6 type  2   force =     0.00772363   -0.00447189   -0.00108632
     atom    7 type  2   force =     0.01055928    0.00827939   -0.01005420
     atom    8 type  3   force =     0.00600384    0.00686282   -0.00470354
     atom    9 type  3   force =    -0.01203281    0.01180128   -0.00519669
     atom   10 type  3   force =     0.00753412    0.00002667    0.00094277
     atom   11 type  3   force =     0.00310267   -0.00034810    0.00198657
     atom   12 type  3   force =     0.00646465   -0.00262948    0.00298322
     atom   13 type  3   force =     0.00148819   -0.00643024   -0.00142935
     atom   14 type  3   force =    -0.00281300   -0.00624992    0.00487001
     atom   15 type  3   force =    -0.00042333   -0.00320261   -0.00175458
     atom   16 type  3   force =     0.00249977   -0.00002574    0.01082163
     atom   17 type  3   force =     0.00382300   -0.00430562   -0.00879178
     atom   18 type  4   force =     0.01134654    0.00872699    0.00193662
     atom   19 type  4   force =     0.00676034    0.00239267   -0.00164897
     atom   20 type  4   force =     0.00371617    0.00501677    0.00433804
     atom   21 type  4   force =    -0.00434064    0.00460565   -0.00253939
     atom   22 type  4   force =    -0.00139614    0.00551897    0.00452799
     atom   23 type  5   force =    -0.00313458   -0.00315407   -0.00023908

     Total force =     0.525116     Total SCF correction =     0.051212

     Computing stress (Cartesian axis) and pressure

     negative rho (up, down):  9.091E-01 9.091E-01
          total   stress  (Ry/bohr**3)                   (kbar)     P=       82.79
   0.00063108   0.00001056  -0.00000263           92.83        1.55       -0.39
   0.00001056   0.00065821  -0.00001244            1.55       96.83       -1.83
  -0.00000263  -0.00001244   0.00039918           -0.39       -1.83       58.72

     Entering Dynamics:    iteration =     8
                           time      =   0.0008 pico-seconds

ATOMIC_POSITIONS (angstrom)
Hf            2.6706154529        2.8294090050        6.6039666292
Hf            1.2535499946        1.2885744852        5.0584644928
Hf            1.2560487089        7.3921059455        5.0880692257
Hf            4.0876875093        1.2885754977        5.0584635161
Hf            4.0851290866        7.3921810590        5.0880703853
Nb            2.6706176133        2.7992148774        3.5155954302
Nb            2.6706109433        5.8786822693        6.6349886695
Ta            1.2099406401        4.3432256423        5.0711239075
Ta            4.0956865759        4.2273747333        5.0690130709
Ta            1.3078569301        1.3164046624        2.0587520472
Ta            1.3033934053        1.3106709395        8.0946046909
Ta            1.3046186802        7.3781384229        2.0462119622
Ta            1.3083191871        7.3673928314        8.0860298256
Ta            4.0333708207        1.3164039177        2.0587508322
Ta            4.0378349000        1.3106702492        8.0946059506
Ta            4.0366121737        7.3781407417        2.0462123443
Ta            4.0329110699        7.3673949633        8.0860293623
Zr            2.6706104599        5.8685982330        3.5273780202
Zr            1.2443372745        4.3243685551        1.9998959150
Zr            1.2408845941        4.3564243349        8.1498607698
Zr            4.0968912714        4.3243689336        1.9998979677
Zr            4.1003452250        4.3564233968        8.1498591049
H             6.8303590177       12.8614637117        5.2618616136

     kinetic energy (Ekin) =        3722.51604805 Ry
     temperature           =    17810266.62737230 K
     Ekin + Etot (const)   =         779.49278894 Ry
     Ions kinetic stress =        65743.72 (kbar)
                                  17992.80       56774.44        1269.35
                                  56774.44      179148.78        4005.00
                                   1269.35        4005.00          89.59

     Linear momentum :    0.0000000000   -0.0000000000   -0.0000000000

     The maximum number of steps has been reached.

     End of molecular dynamics calculation

     diffusion coefficients :
     atom     1   D =       0.00000011 cm^2/s
     atom     2   D =       0.00000011 cm^2/s
     atom     3   D =       0.00000012 cm^2/s
     atom     4   D =       0.00000012 cm^2/s
     atom     5   D =       0.00000012 cm^2/s
     atom     6   D =       0.00000011 cm^2/s
     atom     7   D =       0.00000012 cm^2/s
     atom     8   D =       0.00000011 cm^2/s
     atom     9   D =       0.00028955 cm^2/s
     atom    10   D =       0.00000011 cm^2/s
     atom    11   D =       0.00000011 cm^2/s
     atom    12   D =       0.00000012 cm^2/s
     atom    13   D =       0.00000012 cm^2/s
     atom    14   D =       0.00000011 cm^2/s
     atom    15   D =       0.00000011 cm^2/s
     atom    16   D =       0.00000012 cm^2/s
     atom    17   D =       0.00000012 cm^2/s
     atom    18   D =       0.00000012 cm^2/s
     atom    19   D =       0.00000011 cm^2/s
     atom    20   D =       0.00000011 cm^2/s
     atom    21   D =       0.00000012 cm^2/s
     atom    22   D =       0.00000012 cm^2/s
     atom    23   D =       0.98884016 cm^2/s

     < D > =       0.04300575 cm^2/s

     Writing all to output data dir outdir/pwscf.save/

     General routines

     Parallel routines

   This run was terminated on:  14:50:35  12Jun2023

   JOB DONE.