     Program PWSCF v.7.2 starts on 12Jun2023 at 22:23:14

     Reading input from md_data/md_Hf5Nb2Ta10Zr5H_20steps_100eV_incident45_polar90.in
Warning: card &CELL ignored
Warning: card / ignored

     Current dimensions of program PWSCF are:
     Max number of different atomic species (ntypx) = 10
     Max number of k-points (npk) =  40000
     Max angular momentum in pseudopotentials (lmaxx) =  4

     File outdir/pwscf.md deleted, as requested

     gamma-point specific algorithms are used

     R & G space division:  proc/nbgrp/npool/nimage =      42
     Subspace diagonalization in iterative solution of the eigenvalue problem:
     one sub-group per band group will be used

     Using Slab Decomposition

     bravais-lattice index     =            0
     lattice parameter (alat)  =      17.6500  a.u.
     unit-cell volume          =    5552.8853 (a.u.)^3
     number of atoms/cell      =           23
     number of atomic types    =            5
     number of electrons       =       277.00
     number of Kohn-Sham states=          167
     kinetic-energy cutoff     =     120.0000  Ry
     charge density cutoff     =     480.0000  Ry
     scf convergence threshold =      1.0E-03
     mixing beta               =       0.7000
     number of iterations used =            8  TF        mixing
     energy convergence thresh.=      0.0E+00
     force convergence thresh. =      0.0E+00
     Exchange-correlation=  SLA  PW   PBX  PBC
                           (   1   4   3   4   0   0   0)
     nstep                     =           20

     celldm(1)=  17.650041  celldm(2)=   0.000000  celldm(3)=   0.000000
     celldm(4)=   0.000000  celldm(5)=   0.000000  celldm(6)=   0.000000

     crystal axes: (cart. coord. in units of alat)
               a(1) = (   1.000000   0.000000   0.000000 )
               a(2) = (   0.000000   0.929336   0.000000 )
               a(3) = (   0.000000   0.000000   1.086698 )

     reciprocal axes: (cart. coord. in units 2 pi/alat)
               b(1) = (  1.000000  0.000000  0.000000 )
               b(2) = (  0.000000  1.076037  0.000000 )
               b(3) = (  0.000000  0.000000  0.920219 )

     PseudoPot. # 1 for Hf read from file:
     q-e/pseudo/hf_pbe_v1.uspp.F.UPF
     MD5 check sum: 8ee9378dfe14276e333edf04c5e4aa26
     Pseudo is Ultrasoft + core correction, Zval = 12.0
     Generated by new atomic code, or converted to UPF format
     Using radial grid of  921 points,  8 beta functions with:
                l(1) =   0
                l(2) =   0
                l(3) =   0
                l(4) =   1
                l(5) =   1
                l(6) =   2
                l(7) =   2
                l(8) =   3
     Q(r) pseudized with  6 coefficients,  rinner =    1.200   1.200   1.200
                                                       1.200   1.200   1.200
                                                       1.200

     PseudoPot. # 2 for Nb read from file:
     q-e/pseudo/nb_pbe_v1.uspp.F.UPF
     MD5 check sum: 573aab8a2fa660278ed4a62cd769473f
     Pseudo is Ultrasoft + core correction, Zval = 13.0
     Generated by new atomic code, or converted to UPF format
     Using radial grid of  887 points,  6 beta functions with:
                l(1) =   0
                l(2) =   0
                l(3) =   1
                l(4) =   1
                l(5) =   2
                l(6) =   2
     Q(r) pseudized with  6 coefficients,  rinner =    1.000   1.000   1.000
                                                       1.000   1.000

     PseudoPot. # 3 for Ta read from file:
     q-e/pseudo/ta_pbe_v1.uspp.F.UPF
     MD5 check sum: f8bbe9446314a3b8ea5d9f3e3836c939
     Pseudo is Ultrasoft + core correction, Zval = 13.0
     Generated by new atomic code, or converted to UPF format
     Using radial grid of  921 points,  7 beta functions with:
                l(1) =   0
                l(2) =   0
                l(3) =   1
                l(4) =   1
                l(5) =   2
                l(6) =   2
                l(7) =   3
     Q(r) pseudized with  6 coefficients,  rinner =    1.300   1.300   1.300
                                                       1.300   1.300   1.300
                                                       1.300

     PseudoPot. # 4 for Zr read from file:
     q-e/pseudo/zr_pbe_v1.uspp.F.UPF
     MD5 check sum: 5db81b1e868ab7776c4564c113de050b
     Pseudo is Ultrasoft + core correction, Zval = 12.0
     Generated by new atomic code, or converted to UPF format
     Using radial grid of  887 points,  6 beta functions with:
                l(1) =   0
                l(2) =   0
                l(3) =   1
                l(4) =   1
                l(5) =   2
                l(6) =   2
     Q(r) pseudized with  6 coefficients,  rinner =    1.200   1.200   1.200
                                                       1.200   1.200

     PseudoPot. # 5 for H  read from file:
     q-e/pseudo/h_pbe_v1.4.uspp.F.UPF
     MD5 check sum: 761ae9a214b05c3daf00ab9f6b793d6f
     Pseudo is Ultrasoft, Zval =  1.0
     Generated by new atomic code, or converted to UPF format
     Using radial grid of  615 points,  2 beta functions with:
                l(1) =   0
                l(2) =   0
     Q(r) pseudized with  8 coefficients,  rinner =    0.700

     atomic species   valence    mass     pseudopotential
        Hf            12.00   178.49000     Hf( 1.00)
        Nb            13.00    92.90637     Nb( 1.00)
        Ta            13.00   180.94788     Ta( 1.00)
        Zr            12.00    91.22400     Zr( 1.00)
        H              1.00     2.01400     H ( 1.00)

     Starting magnetic structure
     atomic species   magnetization
        Hf           0.000
        Nb           0.000
        Ta           0.000
        Zr           0.000
        H            0.000

     No symmetry found

   Cartesian axes

     site n.     atom                  positions (alat units)
         1           Hf  tau(   1) = (   0.2858672   0.3026898   0.7070626  )
         2           Hf  tau(   2) = (   0.1341532   0.1377178   0.5415917  )
         3           Hf  tau(   3) = (   0.1344204   0.7911996   0.5447610  )
         4           Hf  tau(   4) = (   0.4375813   0.1377178   0.5415917  )
         5           Hf  tau(   5) = (   0.4373140   0.7911996   0.5447610  )
         6           Nb  tau(   6) = (   0.2858672   0.2994572   0.3764008  )
         7           Nb  tau(   7) = (   0.2858672   0.6291626   0.7103852  )
         8           Ta  tau(   8) = (   0.1294832   0.4647675   0.5429471  )
         9           Ta  tau(   9) = (   0.4422513   0.4647675   0.5429471  )
        10           Ta  tau(  10) = (   0.1399628   0.1406984   0.2204260  )
        11           Ta  tau(  11) = (   0.1394848   0.1400847   0.8666573  )
        12           Ta  tau(  12) = (   0.1396156   0.7897030   0.2190832  )
        13           Ta  tau(  13) = (   0.1400119   0.7885528   0.8657390  )
        14           Ta  tau(  14) = (   0.4317717   0.1406984   0.2204260  )
        15           Ta  tau(  15) = (   0.4322496   0.1400847   0.8666573  )
        16           Ta  tau(  16) = (   0.4321189   0.7897030   0.2190832  )
        17           Ta  tau(  17) = (   0.4317226   0.7885528   0.8657390  )
        18           Zr  tau(  18) = (   0.2858672   0.6280820   0.3776642  )
        19           Zr  tau(  19) = (   0.1331729   0.4627493   0.2141328  )
        20           Zr  tau(  20) = (   0.1328036   0.4661802   0.8725649  )
        21           Zr  tau(  21) = (   0.4385616   0.4627493   0.2141328  )
        22           Zr  tau(  22) = (   0.4389309   0.4661802   0.8725649  )
        23           H   tau(  23) = (   0.5936660   0.4646681   0.6944747  )

     number of k points=     1  Gaussian smearing, width (Ry)=  0.0220
                       cart. coord. in units 2pi/alat
        k(    1) = (   0.0000000   0.0000000   0.0000000), wk =   1.0000000

     Check: negative core charge=   -0.000002
     Generating pointlists ...
     new r_m :   0.1117 (alat units)  1.9717 (a.u.) for type    1
     new r_m :   0.1098 (alat units)  1.9374 (a.u.) for type    2
     new r_m :   0.0884 (alat units)  1.5596 (a.u.) for type    3
     new r_m :   0.0973 (alat units)  1.7177 (a.u.) for type    4
     new r_m :   0.0884 (alat units)  1.5596 (a.u.) for type    5

     Initial potential from superposition of free atoms

     starting charge     266.9726, renormalised to     277.0000

     negative rho (up, down):  9.216E-01 9.216E-01
     Starting wfcs are  287 randomized atomic wfcs

     Self-consistent Calculation

     iteration #  1     ecut=   120.00 Ry     beta= 0.70
     Davidson diagonalization with overlap
     ethr =  1.00E-02,  avg # of iterations =  2.0

     negative rho (up, down):  9.973E-01 9.969E-01

     total energy              =   -2930.59251708 Ry
     estimated scf accuracy    <     276.79727809 Ry

     total magnetization       =    -0.00 Bohr mag/cell
     absolute magnetization    =     0.09 Bohr mag/cell

[...]

     Magnetic moment per site  (integrated on atomic sphere of radius R)
     atom   1 (R=0.112)  charge=  9.4662  magn=  0.0000
     atom   2 (R=0.112)  charge=  9.0584  magn=  0.0001
     atom   3 (R=0.112)  charge=  9.0582  magn=  0.0001
     atom   4 (R=0.112)  charge=  9.0620  magn= -0.0000
     atom   5 (R=0.112)  charge=  9.0606  magn= -0.0003
     atom   6 (R=0.110)  charge= 10.3493  magn=  0.0002
     atom   7 (R=0.110)  charge= 10.3513  magn=  0.0001
     atom   8 (R=0.088)  charge=  8.1318  magn= -0.0000
     atom   9 (R=0.088)  charge=  8.1250  magn= -0.0003
     atom  10 (R=0.088)  charge=  8.1088  magn=  0.0002
     atom  11 (R=0.088)  charge=  8.1062  magn=  0.0001
     atom  12 (R=0.088)  charge=  8.1107  magn=  0.0009
     atom  13 (R=0.088)  charge=  8.1074  magn= -0.0000
     atom  14 (R=0.088)  charge=  8.1068  magn=  0.0005
     atom  15 (R=0.088)  charge=  8.1100  magn=  0.0004
     atom  16 (R=0.088)  charge=  8.1076  magn=  0.0011
     atom  17 (R=0.088)  charge=  8.1097  magn= -0.0001
     atom  18 (R=0.097)  charge=  8.3391  magn= -0.0001
     atom  19 (R=0.097)  charge=  8.0806  magn=  0.0010
     atom  20 (R=0.097)  charge=  8.0816  magn=  0.0003
     atom  21 (R=0.097)  charge=  8.0782  magn=  0.0007
     atom  22 (R=0.097)  charge=  8.0795  magn=  0.0001
     atom  23 (R=0.088)  charge=  1.0425  magn= -0.0000

     End of self-consistent calculation

 ------ SPIN UP ------------

          k = 0.0000 0.0000 0.0000 ( 61588 PWs)   bands (ev):

   -60.7742 -60.7702 -60.7253 -60.7247 -60.6940 -60.6936 -60.6498 -60.6473
   -60.5000 -60.4773 -54.3851 -54.3383 -54.2606 -54.2141 -52.7054 -46.2603
   -46.2431 -41.6124 -41.5953 -41.5083 -41.4925 -39.7824 -27.7780 -27.7691
   -27.6875 -27.6864 -27.5882 -27.5783 -27.4630 -27.4497 -27.3893 -27.3291
   -27.3072 -27.2596 -27.2558 -27.2383 -27.2213 -27.1686 -27.1593 -27.1449
   -27.1071 -27.0768 -27.0451 -26.9818 -26.9494 -26.9455 -26.9440 -26.9282
   -26.8844 -26.8731 -26.8494 -26.8466 -24.1702 -23.9618 -23.6555 -23.5740
   -23.3152 -23.1832 -23.1579 -23.0613 -22.9304 -22.8598 -22.8460 -22.6269
   -22.4976 -22.4446 -22.3892 -22.3487 -22.2713 -22.2281 -21.7573 -21.7096
[...]

     convergence has been achieved in   4 iterations

     negative rho (up, down):  9.084E-01 9.084E-01

     Forces acting on atoms (cartesian axes, Ry/au):

     atom    1 type  1   force =    -0.01118832   -0.02240533    0.00293874
     atom    2 type  1   force =    -0.11549235   -0.01519493   -0.00656120
     atom    3 type  1   force =    -0.11274870    0.01264378   -0.00107164
     atom    4 type  1   force =     0.11376002   -0.02390121   -0.00923337
     atom    5 type  1   force =     0.11322748    0.02228582   -0.00333439
     atom    6 type  2   force =    -0.01022471   -0.02011261    0.00268704
     atom    7 type  2   force =    -0.01272239    0.01263730   -0.00938641
     atom    8 type  3   force =    -0.10846590    0.00285549   -0.00769516
     atom    9 type  3   force =     0.15554613    0.00051302    0.04259864
     atom   10 type  3   force =    -0.02239147   -0.03239992   -0.05961787
     atom   11 type  3   force =    -0.01668391   -0.03378946    0.06105787
     atom   12 type  3   force =    -0.01714774    0.03750153   -0.05445125
     atom   13 type  3   force =    -0.01609214    0.02773510    0.06476537
     atom   14 type  3   force =     0.02371497   -0.03111623   -0.05658398
     atom   15 type  3   force =     0.01515259   -0.04074515    0.05851914
     atom   16 type  3   force =     0.01853504    0.03561535   -0.05144155
     atom   17 type  3   force =     0.01335707    0.03411040    0.06068893
     atom   18 type  4   force =    -0.01314342    0.03000329   -0.02177552
     atom   19 type  4   force =    -0.12479381   -0.00496903   -0.11659131
     atom   20 type  4   force =    -0.12985741    0.00554625    0.11588935
     atom   21 type  4   force =     0.12270225   -0.00475372   -0.11726530
     atom   22 type  4   force =     0.17494184    0.00803865    0.10770205
     atom   23 type  5   force =    -0.03998512   -0.00009839   -0.00183819
     The non-local contrib.  to forces
     atom    1 type  1   force =     0.00050619   -0.01209032    0.02392134
     atom    2 type  1   force =    -0.24478015   -0.16372837    0.01233861
     atom    3 type  1   force =    -0.23875437    0.15988379   -0.03081549
     atom    4 type  1   force =     0.26007966   -0.16278728    0.03162054
     atom    5 type  1   force =     0.25022377    0.16075852   -0.01342228
     atom    6 type  2   force =     0.00563385   -0.04140141   -0.05273214
     atom    7 type  2   force =    -0.01122251    0.05916825    0.05437577
     atom    8 type  3   force =    -0.27427593   -0.00036237    0.00138648
     atom    9 type  3   force =     0.25035238   -0.00012817    0.01449352
     atom   10 type  3   force =    -0.21190726    0.00474155   -0.20541780
     atom   11 type  3   force =    -0.21839471    0.00492720    0.20050009
     atom   12 type  3   force =    -0.20230684   -0.01981101   -0.17682436
     atom   13 type  3   force =    -0.20680059   -0.00207233    0.21377786
     atom   14 type  3   force =     0.20402629    0.00319542   -0.21809771
     atom   15 type  3   force =     0.24101468    0.01517956    0.17657113
     atom   16 type  3   force =     0.19306792   -0.01971831   -0.18806933
     atom   17 type  3   force =     0.22826144   -0.01199447    0.18784488
     atom   18 type  4   force =     0.00650198    0.05118023   -0.05335042
     atom   19 type  4   force =     0.06166181    0.00974046    0.07415517
     atom   20 type  4   force =     0.04939135   -0.01478690   -0.05694654
     atom   21 type  4   force =    -0.05629264    0.00942971    0.07609294
     atom   22 type  4   force =    -0.05714069   -0.01119240   -0.11014143
     atom   23 type  5   force =    -0.03062073    0.00035344    0.00844711
     The ionic contribution  to forces
     atom    1 type  1   force =    -0.19848321   -4.69687383   14.05239253
     atom    2 type  1   force =   -39.67532352   -6.19406248    0.74167232
     atom    3 type  1   force =   -39.64858079    6.18179702   -0.75111213
     atom    4 type  1   force =    39.56228650   -6.29134854    0.69971852
     atom    5 type  1   force =    39.53665079    6.27750620   -0.79012214
     atom    6 type  2   force =    -0.29492971   -3.89691096  -14.17927520
     atom    7 type  2   force =    -0.21253977    3.70072818   13.98345601
     atom    8 type  3   force =   -52.32688532    0.07118306   -0.07588737
     atom    9 type  3   force =    51.23537092    0.10894333   -0.43764739
     atom   10 type  3   force =   -36.04742865   -2.11466541  -23.03056097
     atom   11 type  3   force =   -35.09687784   -0.88294608   22.05703433
     atom   12 type  3   force =   -35.23450460    0.81809555  -22.08549823
     atom   13 type  3   force =   -35.99506551    2.21602594   23.03499683
     atom   14 type  3   force =    35.98582114   -2.15816873  -23.05110270
     atom   15 type  3   force =    34.90130045   -1.03555905   22.11839563
     atom   16 type  3   force =    35.17354852    0.86080372  -22.10552328
     atom   17 type  3   force =    35.80197972    2.36379709   23.09311193
     atom   18 type  4   force =    -0.28074240    4.68321885  -14.12526963
     atom   19 type  4   force =   -35.90977656    0.95403476  -25.49212812
     atom   20 type  4   force =   -35.80678057   -0.95019013   25.47846517
     atom   21 type  4   force =    35.82585405    0.95247645  -25.66042852
     atom   22 type  4   force =    34.81268106   -0.93434704   25.98051874
     atom   23 type  5   force =     3.89242528   -0.03353787    0.54479368
     The local contribution  to forces
     atom    1 type  1   force =     0.18392618    4.68178691  -14.07320850
     atom    2 type  1   force =    39.81821519    6.34196882   -0.77458180
     atom    3 type  1   force =    39.78822973   -6.32961505    0.76929775
     atom    4 type  1   force =   -39.72322971    6.42932863   -0.75887665
     atom    5 type  1   force =   -39.68898309   -6.41559108    0.78482153
     atom    6 type  2   force =     0.27759091    3.91269835   14.20417205
     atom    7 type  2   force =     0.20999914   -3.73969583  -14.04479397
     atom    8 type  3   force =    52.52607045   -0.06804178    0.04960689
     atom    9 type  3   force =   -51.36894849   -0.10824475    0.44335051
     atom   10 type  3   force =    36.26222627    2.06389381   23.18379870
     atom   11 type  3   force =    35.32521813    0.83363866  -22.19967395
     atom   12 type  3   force =    35.44497001   -0.74735953   22.21444320
     atom   13 type  3   force =    36.21172684   -2.17653915  -23.18705566
     atom   14 type  3   force =   -36.19137134    2.10905767   23.21968275
     atom   15 type  3   force =   -35.15529713    0.96893834  -22.23689230
     atom   16 type  3   force =   -35.37336857   -0.79057127   22.24848293
     atom   17 type  3   force =   -36.04316413   -2.30943197  -23.22127363
     atom   18 type  4   force =     0.25957409   -4.69822921   14.12839143
     atom   19 type  4   force =    35.73687774   -0.96858067   25.30070313
     atom   20 type  4   force =    35.63749115    0.97034805  -25.29978170
     atom   21 type  4   force =   -35.66141432   -0.96684714   25.46551110
     atom   22 type  4   force =   -34.57770731    0.95387415  -25.75975179
     atom   23 type  5   force =    -3.89964180    0.03298407   -0.55257372
     The core correction contribution to forces
     atom    1 type  1   force =     0.00218284    0.00137073   -0.00079661
     atom    2 type  1   force =    -0.01263271   -0.00188300   -0.00022607
     atom    3 type  1   force =    -0.01263603    0.00293225   -0.00244044
     atom    4 type  1   force =     0.01431345   -0.00286684    0.00436442
     atom    5 type  1   force =     0.01469738    0.00335473    0.00213186
     atom    6 type  2   force =    -0.00043102    0.00168882    0.00190639
     atom    7 type  2   force =     0.00050438   -0.00287434   -0.00210210
     atom    8 type  3   force =    -0.03421584    0.00003553   -0.00009750
     atom    9 type  3   force =     0.02809162   -0.00026492   -0.00054476
     atom   10 type  3   force =    -0.02171200    0.00929536   -0.01639847
     atom   11 type  3   force =    -0.02408544    0.00914119    0.01727012
     atom   12 type  3   force =    -0.02189714   -0.00961015   -0.01565639
     atom   13 type  3   force =    -0.02252029   -0.00866105    0.01711355
     atom   14 type  3   force =     0.02190923    0.00981374   -0.01642467
     atom   15 type  3   force =     0.02620012    0.01063817    0.01378120
     atom   16 type  3   force =     0.02167474   -0.01002878   -0.01591305
     atom   17 type  3   force =     0.02380836   -0.00937854    0.01425270
     atom   18 type  4   force =    -0.00049076   -0.00253137    0.00219528
     atom   19 type  4   force =    -0.00972934    0.00000492   -0.00968784
     atom   20 type  4   force =    -0.00898568    0.00043171    0.00898047
     atom   21 type  4   force =     0.00944918    0.00002007   -0.01002633
     atom   22 type  4   force =     0.00775431    0.00027053    0.01288177
     atom   23 type  5   force =     0.00000000    0.00000000    0.00000000
     The Hubbard contrib.    to forces
     atom    1 type  1   force =     0.00000000    0.00000000    0.00000000
     atom    2 type  1   force =     0.00000000    0.00000000    0.00000000
     atom    3 type  1   force =     0.00000000    0.00000000    0.00000000
     atom    4 type  1   force =     0.00000000    0.00000000    0.00000000
     atom    5 type  1   force =     0.00000000    0.00000000    0.00000000
     atom    6 type  2   force =     0.00000000    0.00000000    0.00000000
     atom    7 type  2   force =     0.00000000    0.00000000    0.00000000
     atom    8 type  3   force =     0.00000000    0.00000000    0.00000000
     atom    9 type  3   force =     0.00000000    0.00000000    0.00000000
     atom   10 type  3   force =     0.00000000    0.00000000    0.00000000
     atom   11 type  3   force =     0.00000000    0.00000000    0.00000000
     atom   12 type  3   force =     0.00000000    0.00000000    0.00000000
     atom   13 type  3   force =     0.00000000    0.00000000    0.00000000
     atom   14 type  3   force =     0.00000000    0.00000000    0.00000000
     atom   15 type  3   force =     0.00000000    0.00000000    0.00000000
     atom   16 type  3   force =     0.00000000    0.00000000    0.00000000
     atom   17 type  3   force =     0.00000000    0.00000000    0.00000000
     atom   18 type  4   force =     0.00000000    0.00000000    0.00000000
     atom   19 type  4   force =     0.00000000    0.00000000    0.00000000
     atom   20 type  4   force =     0.00000000    0.00000000    0.00000000
     atom   21 type  4   force =     0.00000000    0.00000000    0.00000000
     atom   22 type  4   force =     0.00000000    0.00000000    0.00000000
     atom   23 type  5   force =     0.00000000    0.00000000    0.00000000
     The SCF correction term to forces
     atom    1 type  1   force =     0.00073339    0.00336762   -0.00035468
     atom    2 type  1   force =    -0.00091745    0.00247654    0.01325108
     atom    3 type  1   force =    -0.00095353   -0.00238781    0.01301400
     atom    4 type  1   force =     0.00036383    0.00373926    0.01295513
     atom    5 type  1   force =     0.00069234   -0.00377613    0.01227197
     atom    6 type  2   force =     0.00196497    0.00377902    0.02763127
     atom    7 type  2   force =     0.00059008   -0.00472252   -0.00130679
     atom    8 type  3   force =     0.00089446    0.00000748    0.01631167
     atom    9 type  3   force =     0.01073341    0.00017395    0.02196209
     atom   10 type  3   force =    -0.00351612    0.00430120    0.00797599
     atom   11 type  3   force =    -0.00249035    0.00141600   -0.01505739
     atom   12 type  3   force =    -0.00335546   -0.00384690    0.00809986
     atom   13 type  3   force =    -0.00337888   -0.00105188   -0.01505188
     atom   14 type  3   force =     0.00338336    0.00495211    0.00837368
     atom   15 type  3   force =     0.00198818    0.00002427   -0.01432120
     atom   16 type  3   force =     0.00366615   -0.00490357    0.00859650
     atom   17 type  3   force =     0.00252539    0.00108473   -0.01423161
     atom   18 type  4   force =     0.00206738   -0.00366878    0.02527315
     atom   19 type  4   force =    -0.00377376   -0.00020207    0.00938168
     atom   20 type  4   force =    -0.00091996   -0.00029006   -0.01581272
     atom   21 type  4   force =     0.00515969    0.00013363    0.01060083
     atom   22 type  4   force =    -0.01059182   -0.00060016   -0.01678991
     atom   23 type  5   force =    -0.00209416    0.00006841   -0.00348993

     Total force =     0.515801     Total SCF correction =     0.072421
     SCF correction compared to forces is large: reduce conv_thr to get better values

     Computing stress (Cartesian axis) and pressure

     negative rho (up, down):  9.084E-01 9.084E-01
          total   stress  (Ry/bohr**3)                   (kbar)     P=       82.14
   0.00063245  -0.00000018   0.00001347           93.04       -0.03        1.98
  -0.00000018   0.00067031  -0.00001184           -0.03       98.61       -1.74
   0.00001347  -0.00001184   0.00037230            1.98       -1.74       54.77

     Entering Dynamics:    iteration =    20
                           time      =   0.0041 pico-seconds

ATOMIC_POSITIONS (angstrom)
Hf            2.6717353218        2.8269318387        6.6057629112
Hf            1.2534226567        1.2861234300        5.0601998518
Hf            1.2559257646        7.3899435657        5.0898734282
Hf            4.0901020840        1.2860898145        5.0601821039
Hf            4.0876102611        7.3899596146        5.0898501227
Nb            2.6717988263        2.7966196761        3.5175304073
Nb            2.6716936330        5.8765578183        6.6365221779
Ta            1.2097701711        4.3409609423        5.0729407738
Ta            4.0963080879        4.3411976835        5.0346691381
Ta            1.3087631706        1.3137391395        2.0599146275
Ta            1.3043400204        1.3079832167        8.0970101630
Ta            1.3055615124        7.3762576472        2.0474152676
Ta            1.3092728376        7.3654153818        8.0884591230
Ta            4.0347792683        1.3138207203        2.0599231302
Ta            4.0391949172        1.3079678104        8.0969653562
Ta            4.0379877089        7.3761874559        2.0474252288
Ta            4.0342552447        7.3654440758        8.0884354056
Zr            2.6718015604        5.8667298729        3.5290018152
Zr            1.2427434239        4.3219717190        1.9992038860
Zr            1.2392015014        4.3542383922        8.1540606131
Zr            4.1008383877        4.3219577872        1.9990106479
Zr            4.1046681199        4.3542824623        8.1538702751
H             5.9609692342        4.3216001004        6.9922209646

     kinetic energy (Ekin) =           8.08132507 Ry
     temperature           =       38664.85792319 K
     Ekin + Etot (const)   =       -2934.99238687 Ry
     Ions kinetic stress =          142.73 (kbar)
                                    201.71          -2.36         213.53
                                     -2.36           0.04          -2.50
                                    213.53          -2.50         226.43

     Linear momentum :   -0.0000000000    0.0000000000    0.0000000000

     The maximum number of steps has been reached.

     End of molecular dynamics calculation

     diffusion coefficients :
     atom     1   D =       0.00000003 cm^2/s
     atom     2   D =       0.00000001 cm^2/s
     atom     3   D =       0.00000001 cm^2/s
     atom     4   D =       0.00000005 cm^2/s
     atom     5   D =       0.00000005 cm^2/s
     atom     6   D =       0.00000003 cm^2/s
     atom     7   D =       0.00000002 cm^2/s
     atom     8   D =       0.00000001 cm^2/s
     atom     9   D =       0.00001028 cm^2/s
     atom    10   D =       0.00000002 cm^2/s
     atom    11   D =       0.00000003 cm^2/s
     atom    12   D =       0.00000002 cm^2/s
     atom    13   D =       0.00000004 cm^2/s
     atom    14   D =       0.00000002 cm^2/s
     atom    15   D =       0.00000004 cm^2/s
     atom    16   D =       0.00000002 cm^2/s
     atom    17   D =       0.00000004 cm^2/s
     atom    18   D =       0.00000002 cm^2/s
     atom    19   D =       0.00000001 cm^2/s
     atom    20   D =       0.00000008 cm^2/s
     atom    21   D =       0.00000009 cm^2/s
     atom    22   D =       0.00000017 cm^2/s
     atom    23   D =       0.00176096 cm^2/s

     < D > =       0.00007705 cm^2/s

     Writing all to output data dir outdir/pwscf.save/

     General routines

     Parallel routines

   This run was terminated on:  23:23: 9  12Jun2023

   JOB DONE.