     Program PWSCF v.7.2 starts on 13Jun2023 at 16:11:29

     Reading input from md_data/md_Hf5Nb2Ta10Zr5H_20steps_100eV_incident60_polar60.in
Warning: card &CELL ignored
Warning: card / ignored

     Current dimensions of program PWSCF are:
     Max number of different atomic species (ntypx) = 10
     Max number of k-points (npk) =  40000
     Max angular momentum in pseudopotentials (lmaxx) =  4

     File outdir/pwscf.md deleted, as requested

     gamma-point specific algorithms are used

     R & G space division:  proc/nbgrp/npool/nimage =      42
     Subspace diagonalization in iterative solution of the eigenvalue problem:
     one sub-group per band group will be used

     Using Slab Decomposition

     bravais-lattice index     =            0
     lattice parameter (alat)  =      17.6500  a.u.
     unit-cell volume          =    5552.8853 (a.u.)^3
     number of atoms/cell      =           23
     number of atomic types    =            5
     number of electrons       =       277.00
     number of Kohn-Sham states=          167
     kinetic-energy cutoff     =     120.0000  Ry
     charge density cutoff     =     480.0000  Ry
     scf convergence threshold =      1.0E-03
     mixing beta               =       0.7000
     number of iterations used =            8  TF        mixing
     energy convergence thresh.=      0.0E+00
     force convergence thresh. =      0.0E+00
     Exchange-correlation=  SLA  PW   PBX  PBC
                           (   1   4   3   4   0   0   0)
     nstep                     =           20

     celldm(1)=  17.650041  celldm(2)=   0.000000  celldm(3)=   0.000000
     celldm(4)=   0.000000  celldm(5)=   0.000000  celldm(6)=   0.000000

     crystal axes: (cart. coord. in units of alat)
               a(1) = (   1.000000   0.000000   0.000000 )
               a(2) = (   0.000000   0.929336   0.000000 )
               a(3) = (   0.000000   0.000000   1.086698 )

     reciprocal axes: (cart. coord. in units 2 pi/alat)
               b(1) = (  1.000000  0.000000  0.000000 )
               b(2) = (  0.000000  1.076037  0.000000 )
               b(3) = (  0.000000  0.000000  0.920219 )

     PseudoPot. # 1 for Hf read from file:
     q-e/pseudo/hf_pbe_v1.uspp.F.UPF
     MD5 check sum: 8ee9378dfe14276e333edf04c5e4aa26
     Pseudo is Ultrasoft + core correction, Zval = 12.0
     Generated by new atomic code, or converted to UPF format
     Using radial grid of  921 points,  8 beta functions with:
                l(1) =   0
                l(2) =   0
                l(3) =   0
                l(4) =   1
                l(5) =   1
                l(6) =   2
                l(7) =   2
                l(8) =   3
     Q(r) pseudized with  6 coefficients,  rinner =    1.200   1.200   1.200
                                                       1.200   1.200   1.200
                                                       1.200

     PseudoPot. # 2 for Nb read from file:
     q-e/pseudo/nb_pbe_v1.uspp.F.UPF
     MD5 check sum: 573aab8a2fa660278ed4a62cd769473f
     Pseudo is Ultrasoft + core correction, Zval = 13.0
     Generated by new atomic code, or converted to UPF format
     Using radial grid of  887 points,  6 beta functions with:
                l(1) =   0
                l(2) =   0
                l(3) =   1
                l(4) =   1
                l(5) =   2
                l(6) =   2
     Q(r) pseudized with  6 coefficients,  rinner =    1.000   1.000   1.000
                                                       1.000   1.000

     PseudoPot. # 3 for Ta read from file:
     q-e/pseudo/ta_pbe_v1.uspp.F.UPF
     MD5 check sum: f8bbe9446314a3b8ea5d9f3e3836c939
     Pseudo is Ultrasoft + core correction, Zval = 13.0
     Generated by new atomic code, or converted to UPF format
     Using radial grid of  921 points,  7 beta functions with:
                l(1) =   0
                l(2) =   0
                l(3) =   1
                l(4) =   1
                l(5) =   2
                l(6) =   2
                l(7) =   3
     Q(r) pseudized with  6 coefficients,  rinner =    1.300   1.300   1.300
                                                       1.300   1.300   1.300
                                                       1.300

     PseudoPot. # 4 for Zr read from file:
     q-e/pseudo/zr_pbe_v1.uspp.F.UPF
     MD5 check sum: 5db81b1e868ab7776c4564c113de050b
     Pseudo is Ultrasoft + core correction, Zval = 12.0
     Generated by new atomic code, or converted to UPF format
     Using radial grid of  887 points,  6 beta functions with:
                l(1) =   0
                l(2) =   0
                l(3) =   1
                l(4) =   1
                l(5) =   2
                l(6) =   2
     Q(r) pseudized with  6 coefficients,  rinner =    1.200   1.200   1.200
                                                       1.200   1.200

     PseudoPot. # 5 for H  read from file:
     q-e/pseudo/h_pbe_v1.4.uspp.F.UPF
     MD5 check sum: 761ae9a214b05c3daf00ab9f6b793d6f
     Pseudo is Ultrasoft, Zval =  1.0
     Generated by new atomic code, or converted to UPF format
     Using radial grid of  615 points,  2 beta functions with:
                l(1) =   0
                l(2) =   0
     Q(r) pseudized with  8 coefficients,  rinner =    0.700

     atomic species   valence    mass     pseudopotential
        Hf            12.00   178.49000     Hf( 1.00)
        Nb            13.00    92.90637     Nb( 1.00)
        Ta            13.00   180.94788     Ta( 1.00)
        Zr            12.00    91.22400     Zr( 1.00)
        H              1.00     2.01400     H ( 1.00)

     Starting magnetic structure
     atomic species   magnetization
        Hf           0.000
        Nb           0.000
        Ta           0.000
        Zr           0.000
        H            0.000

     No symmetry found

   Cartesian axes

     site n.     atom                  positions (alat units)
         1           Hf  tau(   1) = (   0.2858672   0.3026898   0.7070626  )
         2           Hf  tau(   2) = (   0.1341532   0.1377178   0.5415917  )
         3           Hf  tau(   3) = (   0.1344204   0.7911996   0.5447610  )
         4           Hf  tau(   4) = (   0.4375813   0.1377178   0.5415917  )
         5           Hf  tau(   5) = (   0.4373140   0.7911996   0.5447610  )
         6           Nb  tau(   6) = (   0.2858672   0.2994572   0.3764008  )
         7           Nb  tau(   7) = (   0.2858672   0.6291626   0.7103852  )
         8           Ta  tau(   8) = (   0.1294832   0.4647675   0.5429471  )
         9           Ta  tau(   9) = (   0.4422513   0.4647675   0.5429471  )
        10           Ta  tau(  10) = (   0.1399628   0.1406984   0.2204260  )
        11           Ta  tau(  11) = (   0.1394848   0.1400847   0.8666573  )
        12           Ta  tau(  12) = (   0.1396156   0.7897030   0.2190832  )
        13           Ta  tau(  13) = (   0.1400119   0.7885528   0.8657390  )
        14           Ta  tau(  14) = (   0.4317717   0.1406984   0.2204260  )
        15           Ta  tau(  15) = (   0.4322496   0.1400847   0.8666573  )
        16           Ta  tau(  16) = (   0.4321189   0.7897030   0.2190832  )
        17           Ta  tau(  17) = (   0.4317226   0.7885528   0.8657390  )
        18           Zr  tau(  18) = (   0.2858672   0.6280820   0.3776642  )
        19           Zr  tau(  19) = (   0.1331729   0.4627493   0.2141328  )
        20           Zr  tau(  20) = (   0.1328036   0.4661802   0.8725649  )
        21           Zr  tau(  21) = (   0.4385616   0.4627493   0.2141328  )
        22           Zr  tau(  22) = (   0.4389309   0.4661802   0.8725649  )
        23           H   tau(  23) = (   0.5493177   0.5573903   0.7036595  )

     number of k points=     1  Gaussian smearing, width (Ry)=  0.0220
                       cart. coord. in units 2pi/alat
        k(    1) = (   0.0000000   0.0000000   0.0000000), wk =   1.0000000

     Check: negative core charge=   -0.000002
     Generating pointlists ...
     new r_m :   0.1117 (alat units)  1.9717 (a.u.) for type    1
     new r_m :   0.1098 (alat units)  1.9374 (a.u.) for type    2
     new r_m :   0.0883 (alat units)  1.5593 (a.u.) for type    3
     new r_m :   0.0913 (alat units)  1.6122 (a.u.) for type    4
     new r_m :   0.0883 (alat units)  1.5593 (a.u.) for type    5

     Initial potential from superposition of free atoms

     starting charge     266.9726, renormalised to     277.0000

     negative rho (up, down):  9.216E-01 9.216E-01
     Starting wfcs are  287 randomized atomic wfcs

     Self-consistent Calculation

     iteration #  1     ecut=   120.00 Ry     beta= 0.70
     Davidson diagonalization with overlap
     ethr =  1.00E-02,  avg # of iterations =  2.0

     negative rho (up, down):  9.968E-01 9.965E-01

     total energy              =   -2930.55643073 Ry
     estimated scf accuracy    <     276.66563015 Ry

     total magnetization       =    -0.00 Bohr mag/cell
     absolute magnetization    =     0.09 Bohr mag/cell

[...]

     iteration # 12     ecut=   120.00 Ry     beta= 0.70
     Davidson diagonalization with overlap
     c_bands:  1 eigenvalues not converged
     c_bands:  1 eigenvalues not converged
     ethr =  2.22E-06,  avg # of iterations = 20.0

[...]

     Magnetic moment per site  (integrated on atomic sphere of radius R)
     atom   1 (R=0.112)  charge=  9.4636   -0.0002
     atom   2 (R=0.112)  charge=  9.0581    0.0001
     atom   3 (R=0.112)  charge=  9.0568   -0.0001
     atom   4 (R=0.112)  charge=  9.0584   -0.0000
     atom   5 (R=0.112)  charge=  9.0669   -0.0002
     atom   6 (R=0.110)  charge= 10.3486    0.0000
     atom   7 (R=0.110)  charge= 10.3554   -0.0001
     atom   8 (R=0.088)  charge=  8.1283   -0.0001
     atom   9 (R=0.088)  charge=  8.1312   -0.0001
     atom  10 (R=0.088)  charge=  8.1074   -0.0004
     atom  11 (R=0.088)  charge=  8.1060   -0.0002
     atom  12 (R=0.088)  charge=  8.1088   -0.0007
     atom  13 (R=0.088)  charge=  8.1054    0.0000
     atom  14 (R=0.088)  charge=  8.1071   -0.0005
     atom  15 (R=0.088)  charge=  8.1027   -0.0003
     atom  16 (R=0.088)  charge=  8.1058   -0.0013
     atom  17 (R=0.088)  charge=  8.1123   -0.0009
     atom  18 (R=0.091)  charge=  7.7809    0.0001
     atom  19 (R=0.091)  charge=  7.5871   -0.0008
     atom  20 (R=0.091)  charge=  7.5854    0.0000
     atom  21 (R=0.091)  charge=  7.5842   -0.0011
     atom  22 (R=0.091)  charge=  7.5910   -0.0002
     atom  23 (R=0.088)  charge=  1.0963    0.0000

     End of self-consistent calculation

 ------ SPIN UP ------------

          k = 0.0000 0.0000 0.0000 ( 61588 PWs)   bands (ev):

   -60.7848 -60.7637 -60.7373 -60.7194 -60.6872 -60.6841 -60.6408 -60.6405
   -60.5387 -60.5038 -54.3908 -54.3412 -54.2535 -54.2078 -52.6832 -46.3320
   -46.2461 -41.5980 -41.5881 -41.4841 -41.4788 -39.7917 -27.7810 -27.7604
   -27.6911 -27.6761 -27.5969 -27.5735 -27.4528 -27.4422 -27.4180 -27.3377
   -27.3124 -27.2706 -27.2556 -27.2377 -27.2173 -27.1712 -27.1636 -27.1506
   -27.1212 -27.1133 -27.0770 -27.0328 -26.9595 -26.9438 -26.9390 -26.9188
   -26.8822 -26.8638 -26.8382 -26.8374 -24.1708 -23.9640 -23.6595 -23.5733
[...]
     absolute magnetization    =     0.00 Bohr mag/cell

     convergence has been achieved in   5 iterations

     negative rho (up, down):  9.089E-01 9.089E-01

     Forces acting on atoms (cartesian axes, Ry/au):

     atom    1 type  1   force =    -0.00453957   -0.02613743    0.00000078
     atom    2 type  1   force =    -0.11748368   -0.01250070    0.00080357
     atom    3 type  1   force =    -0.11041721    0.00975894    0.00679237
     atom    4 type  1   force =     0.11766153   -0.01691144   -0.00145445
     atom    5 type  1   force =     0.11112568    0.01255775    0.00385252
     atom    6 type  2   force =    -0.01330528   -0.02029590   -0.00090772
     atom    7 type  2   force =    -0.01558332    0.00423442   -0.01520472
     atom    8 type  3   force =    -0.10588843    0.00292463   -0.00656118
     atom    9 type  3   force =     0.12875391    0.01205153    0.02704779
     atom   10 type  3   force =    -0.02147516   -0.03043000   -0.05983609
     atom   11 type  3   force =    -0.01700297   -0.03421581    0.05277573
     atom   12 type  3   force =    -0.01880663    0.03459228   -0.05442588
     atom   13 type  3   force =    -0.01125879    0.02719497    0.05893599
     atom   14 type  3   force =     0.02316949   -0.03018243   -0.05825628
     atom   15 type  3   force =     0.02186742   -0.03722696    0.05757408
     atom   16 type  3   force =     0.01863995    0.03564741   -0.05236162
     atom   17 type  3   force =     0.02202440    0.03224249    0.05473856
     atom   18 type  4   force =    -0.00380802    0.02831821   -0.00869395
     atom   19 type  4   force =    -0.12666789   -0.00453249   -0.11581223
     atom   20 type  4   force =    -0.12519387    0.01025275    0.11234063
     atom   21 type  4   force =     0.12494195   -0.00680322   -0.11587489
     atom   22 type  4   force =     0.13463608   -0.00210068    0.12513819
     atom   23 type  5   force =    -0.01138960    0.01156169   -0.01061119
     The non-local contrib.  to forces
     atom    1 type  1   force =     0.00215694   -0.01431001    0.02578208
     atom    2 type  1   force =    -0.24771635   -0.16387652    0.01263545
     atom    3 type  1   force =    -0.23928108    0.15533511   -0.01842507
     atom    4 type  1   force =     0.24565771   -0.16140604    0.02516646
     atom    5 type  1   force =     0.27241068    0.11931982    0.01749772
     atom    6 type  2   force =     0.00438143   -0.03745956   -0.04882667
     atom    7 type  2   force =    -0.01944171    0.07636998    0.05620308
     atom    8 type  3   force =    -0.26625740    0.00745402    0.00521636
     atom    9 type  3   force =     0.26795601    0.03355328    0.04047306
     atom   10 type  3   force =    -0.20852628    0.00674736   -0.20280529
     atom   11 type  3   force =    -0.21088485    0.00137383    0.19618502
     atom   12 type  3   force =    -0.20625935   -0.02140049   -0.17450354
     atom   13 type  3   force =    -0.20543058   -0.00601236    0.20132141
     atom   14 type  3   force =     0.21066054    0.00491878   -0.20935533
     atom   15 type  3   force =     0.22572769    0.00701525    0.18579887
     atom   16 type  3   force =     0.19631514   -0.01727119   -0.18208549
     atom   17 type  3   force =     0.25101395   -0.05086685    0.14147391
     atom   18 type  4   force =     0.00203033    0.05093427   -0.05691482
     atom   19 type  4   force =     0.05956650    0.00639672    0.07438155
     atom   20 type  4   force =     0.04594143   -0.02021683   -0.06196539
     atom   21 type  4   force =    -0.05885677    0.01972931    0.07715020
     atom   22 type  4   force =    -0.05579608   -0.01844055   -0.08410216
     atom   23 type  5   force =    -0.02794949   -0.01260582    0.01237704
     The ionic contribution  to forces
     atom    1 type  1   force =    -0.19697517   -4.69726607   14.10855362
     atom    2 type  1   force =   -39.72291214   -6.16443239    0.74915897
     atom    3 type  1   force =   -39.67534366    6.16486548   -0.78000399
     atom    4 type  1   force =    39.60703624   -6.29524866    0.74680630
     atom    5 type  1   force =    39.39290255    6.33407424   -1.02422264
     atom    6 type  2   force =    -0.39837419   -3.89144357  -14.23295419
     atom    7 type  2   force =    -0.53937849    3.57273145   13.75729919
     atom    8 type  3   force =   -52.32647790    0.07599877   -0.07344569
     atom    9 type  3   force =    51.45523758    0.04249248   -0.42796798
     atom   10 type  3   force =   -36.06767966   -2.09835167  -23.02788044
     atom   11 type  3   force =   -35.13739893   -0.83306749   22.04938469
     atom   12 type  3   force =   -35.24703750    0.81197455  -22.07001268
     atom   13 type  3   force =   -36.07218845    2.23760836   23.04352939
     atom   14 type  3   force =    35.98832880   -2.15144651  -23.07273185
     atom   15 type  3   force =    34.98735795   -0.85769537   22.09478639
     atom   16 type  3   force =    35.16164987    0.85432084  -22.08155722
     atom   17 type  3   force =    35.53797581    2.73782616   23.32528793
     atom   18 type  4   force =    -0.22814097    4.59228810  -14.02599218
     atom   19 type  4   force =   -35.92451931    0.94747187  -25.47186513
     atom   20 type  4   force =   -35.89195307   -1.00655198   25.45866828
     atom   21 type  4   force =    35.81773248    0.96274856  -25.66241377
     atom   22 type  4   force =    34.90632286   -1.67311589   26.08243086
     atom   23 type  5   force =     4.57383530    0.33421872    0.53514214
     The local contribution  to forces
     atom    1 type  1   force =     0.18883992    4.68348530  -14.12488295
     atom    2 type  1   force =    39.86368657    6.31902534   -0.74778388
     atom    3 type  1   force =    39.81601304   -6.31579280    0.82055341
     atom    4 type  1   force =   -39.74693482    6.44038214   -0.76234371
     atom    5 type  1   force =   -39.56915840   -6.44307344    1.02213046
     atom    6 type  2   force =     0.37877173    3.91081516   14.29857746
     atom    7 type  2   force =     0.54022510   -3.63939555  -13.81726798
     atom    8 type  3   force =    52.51741279   -0.07922915    0.07472928
     atom    9 type  3   force =   -51.62588745   -0.06307240    0.42685319
     atom   10 type  3   force =    36.27679481    2.05598417   23.18983453
     atom   11 type  3   force =    35.35113899    0.78448260  -22.21463489
     atom   12 type  3   force =    35.45627409   -0.75264300   22.20873461
     atom   13 type  3   force =    36.28635159   -2.19294010  -23.20789794
     atom   14 type  3   force =   -36.19673542    2.11036668   23.24137069
     atom   15 type  3   force =   -35.21319930    0.80049940  -22.24436752
     atom   16 type  3   force =   -35.36237982   -0.79630956   22.23019084
     atom   17 type  3   force =   -35.78629395   -2.64557208  -23.43106601
     atom   18 type  4   force =     0.22017033   -4.61481773   14.08985067
     atom   19 type  4   force =    35.74791732   -0.95732879   25.29518653
     atom   20 type  4   force =    35.72487492    1.03790795  -25.29912051
     atom   21 type  4   force =   -35.64408741   -0.98792282   25.48176579
     atom   22 type  4   force =   -34.71827765    1.69084473  -25.88968322
     atom   23 type  5   force =    -4.55634844   -0.30969790   -0.55578552
     The core correction contribution to forces
     atom    1 type  1   force =     0.00043584    0.00192337   -0.00125698
     atom    2 type  1   force =    -0.01213239   -0.00205815    0.00006741
     atom    3 type  1   force =    -0.01245832    0.00220733   -0.00156184
     atom    4 type  1   force =     0.01301762   -0.00109283    0.00224015
     atom    5 type  1   force =     0.01535789    0.00053038    0.00221640
     atom    6 type  2   force =    -0.00042122    0.00153460    0.00178567
     atom    7 type  2   force =     0.00168947   -0.00404047   -0.00225720
     atom    8 type  3   force =    -0.03295939    0.00104905    0.00018353
     atom    9 type  3   force =     0.03042483    0.00085254    0.00186357
     atom   10 type  3   force =    -0.02235927    0.00943016   -0.01635395
     atom   11 type  3   force =    -0.02259721    0.00882794    0.01721163
     atom   12 type  3   force =    -0.02123515   -0.00924902   -0.01570063
     atom   13 type  3   force =    -0.02190554   -0.00942006    0.01603125
     atom   14 type  3   force =     0.02123181    0.00981461   -0.01536828
     atom   15 type  3   force =     0.02471197    0.00934555    0.01721006
     atom   16 type  3   force =     0.02185862   -0.00998005   -0.01615175
     atom   17 type  3   force =     0.02293525   -0.00753273    0.01232722
     atom   18 type  4   force =    -0.00010350   -0.00263478    0.00285281
     atom   19 type  4   force =    -0.00962876    0.00018067   -0.00962201
     atom   20 type  4   force =    -0.00883757    0.00076621    0.00899507
     atom   21 type  4   force =     0.00954231   -0.00050840   -0.00992348
     atom   22 type  4   force =     0.00801089   -0.00006720    0.01097528
     atom   23 type  5   force =     0.00000000    0.00000000    0.00000000
     The Hubbard contrib.    to forces
     atom    1 type  1   force =     0.00000000    0.00000000    0.00000000
     atom    2 type  1   force =     0.00000000    0.00000000    0.00000000
     atom    3 type  1   force =     0.00000000    0.00000000    0.00000000
     atom    4 type  1   force =     0.00000000    0.00000000    0.00000000
     atom    5 type  1   force =     0.00000000    0.00000000    0.00000000
     atom    6 type  2   force =     0.00000000    0.00000000    0.00000000
     atom    7 type  2   force =     0.00000000    0.00000000    0.00000000
     atom    8 type  3   force =     0.00000000    0.00000000    0.00000000
     atom    9 type  3   force =     0.00000000    0.00000000    0.00000000
     atom   10 type  3   force =     0.00000000    0.00000000    0.00000000
     atom   11 type  3   force =     0.00000000    0.00000000    0.00000000
     atom   12 type  3   force =     0.00000000    0.00000000    0.00000000
     atom   13 type  3   force =     0.00000000    0.00000000    0.00000000
     atom   14 type  3   force =     0.00000000    0.00000000    0.00000000
     atom   15 type  3   force =     0.00000000    0.00000000    0.00000000
     atom   16 type  3   force =     0.00000000    0.00000000    0.00000000
     atom   17 type  3   force =     0.00000000    0.00000000    0.00000000
     atom   18 type  4   force =     0.00000000    0.00000000    0.00000000
     atom   19 type  4   force =     0.00000000    0.00000000    0.00000000
     atom   20 type  4   force =     0.00000000    0.00000000    0.00000000
     atom   21 type  4   force =     0.00000000    0.00000000    0.00000000
     atom   22 type  4   force =     0.00000000    0.00000000    0.00000000
     atom   23 type  5   force =     0.00000000    0.00000000    0.00000000
     The SCF correction term to forces
     atom    1 type  1   force =     0.00099291   -0.00000728   -0.00701603
     atom    2 type  1   force =     0.00158065   -0.00119623   -0.01209543
     atom    3 type  1   force =     0.00064281    0.00310656   -0.01259118
     atom    4 type  1   force =    -0.00112521    0.00041671   -0.01214470
     atom    5 type  1   force =    -0.00039704    0.00166951   -0.01259047
     atom    6 type  2   force =     0.00232697   -0.00377979   -0.01831103
     atom    7 type  2   force =     0.00131233   -0.00146823   -0.00800286
     atom    8 type  3   force =     0.00238347   -0.00238530   -0.01206571
     atom    9 type  3   force =     0.00101294   -0.00181162   -0.01299509
     atom   10 type  3   force =     0.00028526   -0.00427727   -0.00145199
     atom   11 type  3   force =     0.00272904    0.00413006    0.00580822
     atom   12 type  3   force =    -0.00055871    0.00587299   -0.00176468
     atom   13 type  3   force =     0.00190420   -0.00207812    0.00713082
     atom   14 type  3   force =    -0.00032623   -0.00387324   -0.00099257
     atom   15 type  3   force =    -0.00274088    0.00357097    0.00532523
     atom   16 type  3   force =     0.00118615    0.00485012   -0.00157906
     atom   17 type  3   force =    -0.00361665   -0.00164925    0.00789445
     atom   18 type  4   force =     0.00222580    0.00251109   -0.01731148
     atom   19 type  4   force =    -0.00001364   -0.00129020   -0.00271422
     atom   20 type  4   force =     0.00477043   -0.00168985    0.00694214
     atom   21 type  4   force =     0.00060135   -0.00088712   -0.00127468
     atom   22 type  4   force =    -0.00563392   -0.00135901    0.00669638
     atom   23 type  5   force =    -0.00093697   -0.00039056   -0.00116590

     Total force =     0.492378     Total SCF correction =     0.047493

     Computing stress (Cartesian axis) and pressure

     negative rho (up, down):  9.089E-01 9.089E-01
          total   stress  (Ry/bohr**3)                   (kbar)     P=       81.42
   0.00062181   0.00000895   0.00001299           91.47        1.32        1.91
   0.00000895   0.00065511  -0.00001612            1.32       96.37       -2.37
   0.00001299  -0.00001612   0.00038360            1.91       -2.37       56.43

     Entering Dynamics:    iteration =    20
                           time      =   0.0041 pico-seconds

ATOMIC_POSITIONS (angstrom)
Hf            2.6713466402        2.8279949027        6.6058647822
Hf            1.2528874735        1.2872124905        5.0603004949
Hf            1.2554362500        7.3910028007        5.0899783508
Hf            4.0896190452        1.2872305608        5.0603040276
Hf            4.0870999046        7.3910498847        5.0899635695
Nb            2.6715243455        2.7978247130        3.5178487310
Nb            2.6708978186        5.8777337536        6.6365940358
Ta            1.2093314807        4.3421446124        5.0730345287
Ta            4.1062752097        4.3188242347        5.0326085876
Ta            1.3082007845        1.3148226615        2.0600184793
Ta            1.3037866484        1.3090773317        8.0971030972
Ta            1.3050506542        7.3773386804        2.0474964367
Ta            1.3088873759        7.3665135819        8.0885976431
Ta            4.0342372869        1.3149097428        2.0600092970
Ta            4.0386925104        1.3090790113        8.0971256202
Ta            4.0374489444        7.3772932520        2.0475319219
Ta            4.0336474458        7.3665723662        8.0885610037
Zr            2.6713150592        5.8679322458        3.5290876253
Zr            1.2421773715        4.3230735587        1.9992512007
Zr            1.2387284300        4.3553261916        8.1542406896
Zr            4.1003504206        4.3230568813        1.9991445410
Zr            4.1039130267        4.3552672061        8.1541224630
H             5.4563747736        5.4613861951        7.0765059669

     kinetic energy (Ekin) =           8.09547528 Ry
     temperature           =       38732.55921798 K
     Ekin + Etot (const)   =       -2934.99339278 Ry
     Ions kinetic stress =          142.97 (kbar)
                                    106.88          90.30         161.79
                                     90.30          76.47         136.99
                                    161.79         136.99         245.58

     Linear momentum :   -0.0000000000   -0.0000000000    0.0000000000

     The maximum number of steps has been reached.

     End of molecular dynamics calculation

     diffusion coefficients :
     atom     1   D =       0.00000003 cm^2/s
     atom     2   D =       0.00000002 cm^2/s
     atom     3   D =       0.00000002 cm^2/s
     atom     4   D =       0.00000005 cm^2/s
     atom     5   D =       0.00000005 cm^2/s
     atom     6   D =       0.00000003 cm^2/s
     atom     7   D =       0.00000002 cm^2/s
     atom     8   D =       0.00000002 cm^2/s
     atom     9   D =       0.00001052 cm^2/s
     atom    10   D =       0.00000001 cm^2/s
     atom    11   D =       0.00000003 cm^2/s
     atom    12   D =       0.00000002 cm^2/s
     atom    13   D =       0.00000004 cm^2/s
     atom    14   D =       0.00000002 cm^2/s
     atom    15   D =       0.00000004 cm^2/s
     atom    16   D =       0.00000002 cm^2/s
     atom    17   D =       0.00000004 cm^2/s
     atom    18   D =       0.00000003 cm^2/s
     atom    19   D =       0.00000002 cm^2/s
     atom    20   D =       0.00000010 cm^2/s
     atom    21   D =       0.00000008 cm^2/s
     atom    22   D =       0.00000016 cm^2/s
     atom    23   D =       0.00174579 cm^2/s

     < D > =       0.00007640 cm^2/s

     Writing all to output data dir outdir/pwscf.save/

     General routines

     Parallel routines

   This run was terminated on:  17:14: 0  13Jun2023

   JOB DONE.