     Program PWSCF v.7.2 starts on 12Jun2023 at 19:22:30

     Reading input from md_data/md_Hf5Nb2Ta10Zr5H_20steps_100eV_incident45_polar0.in
Warning: card &CELL ignored
Warning: card / ignored

     Current dimensions of program PWSCF are:
     Max number of different atomic species (ntypx) = 10
     Max number of k-points (npk) =  40000
     Max angular momentum in pseudopotentials (lmaxx) =  4

     File outdir/pwscf.update deleted, as requested

     File outdir/pwscf.md deleted, as requested

     gamma-point specific algorithms are used

     R & G space division:  proc/nbgrp/npool/nimage =      42
     Subspace diagonalization in iterative solution of the eigenvalue problem:
     one sub-group per band group will be used

     Using Slab Decomposition

     bravais-lattice index     =            0
     lattice parameter (alat)  =      17.6500  a.u.
     unit-cell volume          =    5552.8853 (a.u.)^3
     number of atoms/cell      =           23
     number of atomic types    =            5
     number of electrons       =       277.00
     number of Kohn-Sham states=          167
     kinetic-energy cutoff     =     120.0000  Ry
     charge density cutoff     =     480.0000  Ry
     scf convergence threshold =      1.0E-03
     mixing beta               =       0.7000
     number of iterations used =            8  TF        mixing
     energy convergence thresh.=      0.0E+00
     force convergence thresh. =      0.0E+00
     Exchange-correlation=  SLA  PW   PBX  PBC
                           (   1   4   3   4   0   0   0)
     nstep                     =           20

     celldm(1)=  17.650041  celldm(2)=   0.000000  celldm(3)=   0.000000
     celldm(4)=   0.000000  celldm(5)=   0.000000  celldm(6)=   0.000000

     crystal axes: (cart. coord. in units of alat)
               a(1) = (   1.000000   0.000000   0.000000 )
               a(2) = (   0.000000   0.929336   0.000000 )
               a(3) = (   0.000000   0.000000   1.086698 )

     reciprocal axes: (cart. coord. in units 2 pi/alat)
               b(1) = (  1.000000  0.000000  0.000000 )
               b(2) = (  0.000000  1.076037  0.000000 )
               b(3) = (  0.000000  0.000000  0.920219 )

     PseudoPot. # 1 for Hf read from file:
     q-e/pseudo/hf_pbe_v1.uspp.F.UPF
     MD5 check sum: 8ee9378dfe14276e333edf04c5e4aa26
     Pseudo is Ultrasoft + core correction, Zval = 12.0
     Generated by new atomic code, or converted to UPF format
     Using radial grid of  921 points,  8 beta functions with:
                l(1) =   0
                l(2) =   0
                l(3) =   0
                l(4) =   1
                l(5) =   1
                l(6) =   2
                l(7) =   2
                l(8) =   3
     Q(r) pseudized with  6 coefficients,  rinner =    1.200   1.200   1.200
                                                       1.200   1.200   1.200
                                                       1.200

     PseudoPot. # 2 for Nb read from file:
     q-e/pseudo/nb_pbe_v1.uspp.F.UPF
     MD5 check sum: 573aab8a2fa660278ed4a62cd769473f
     Pseudo is Ultrasoft + core correction, Zval = 13.0
     Generated by new atomic code, or converted to UPF format
     Using radial grid of  887 points,  6 beta functions with:
                l(1) =   0
                l(2) =   0
                l(3) =   1
                l(4) =   1
                l(5) =   2
                l(6) =   2
     Q(r) pseudized with  6 coefficients,  rinner =    1.000   1.000   1.000
                                                       1.000   1.000

     PseudoPot. # 3 for Ta read from file:
     q-e/pseudo/ta_pbe_v1.uspp.F.UPF
     MD5 check sum: f8bbe9446314a3b8ea5d9f3e3836c939
     Pseudo is Ultrasoft + core correction, Zval = 13.0
     Generated by new atomic code, or converted to UPF format
     Using radial grid of  921 points,  7 beta functions with:
                l(1) =   0
                l(2) =   0
                l(3) =   1
                l(4) =   1
                l(5) =   2
                l(6) =   2
                l(7) =   3
     Q(r) pseudized with  6 coefficients,  rinner =    1.300   1.300   1.300
                                                       1.300   1.300   1.300
                                                       1.300

     PseudoPot. # 4 for Zr read from file:
     q-e/pseudo/zr_pbe_v1.uspp.F.UPF
     MD5 check sum: 5db81b1e868ab7776c4564c113de050b
     Pseudo is Ultrasoft + core correction, Zval = 12.0
     Generated by new atomic code, or converted to UPF format
     Using radial grid of  887 points,  6 beta functions with:
                l(1) =   0
                l(2) =   0
                l(3) =   1
                l(4) =   1
                l(5) =   2
                l(6) =   2
     Q(r) pseudized with  6 coefficients,  rinner =    1.200   1.200   1.200
                                                       1.200   1.200

     PseudoPot. # 5 for H  read from file:
     q-e/pseudo/h_pbe_v1.4.uspp.F.UPF
     MD5 check sum: 761ae9a214b05c3daf00ab9f6b793d6f
     Pseudo is Ultrasoft, Zval =  1.0
     Generated by new atomic code, or converted to UPF format
     Using radial grid of  615 points,  2 beta functions with:
                l(1) =   0
                l(2) =   0
     Q(r) pseudized with  8 coefficients,  rinner =    0.700

     atomic species   valence    mass     pseudopotential
        Hf            12.00   178.49000     Hf( 1.00)
        Nb            13.00    92.90637     Nb( 1.00)
        Ta            13.00   180.94788     Ta( 1.00)
        Zr            12.00    91.22400     Zr( 1.00)
        H              1.00     2.01400     H ( 1.00)

     Starting magnetic structure
     atomic species   magnetization
        Hf           0.000
        Nb           0.000
        Ta           0.000
        Zr           0.000
        H            0.000

     No symmetry found

   Cartesian axes

     site n.     atom                  positions (alat units)
         1           Hf  tau(   1) = (   0.2858672   0.3026898   0.7070626  )
         2           Hf  tau(   2) = (   0.1341532   0.1377178   0.5415917  )
         3           Hf  tau(   3) = (   0.1344204   0.7911996   0.5447610  )
         4           Hf  tau(   4) = (   0.4375813   0.1377178   0.5415917  )
         5           Hf  tau(   5) = (   0.4373140   0.7911996   0.5447610  )
         6           Nb  tau(   6) = (   0.2858672   0.2994572   0.3764008  )
         7           Nb  tau(   7) = (   0.2858672   0.6291626   0.7103852  )
         8           Ta  tau(   8) = (   0.1294832   0.4647675   0.5429471  )
         9           Ta  tau(   9) = (   0.4422513   0.4647675   0.5429471  )
        10           Ta  tau(  10) = (   0.1399628   0.1406984   0.2204260  )
        11           Ta  tau(  11) = (   0.1394848   0.1400847   0.8666573  )
        12           Ta  tau(  12) = (   0.1396156   0.7897030   0.2190832  )
        13           Ta  tau(  13) = (   0.1400119   0.7885528   0.8657390  )
        14           Ta  tau(  14) = (   0.4317717   0.1406984   0.2204260  )
        15           Ta  tau(  15) = (   0.4322496   0.1400847   0.8666573  )
        16           Ta  tau(  16) = (   0.4321189   0.7897030   0.2190832  )
        17           Ta  tau(  17) = (   0.4317226   0.7885528   0.8657390  )
        18           Zr  tau(  18) = (   0.2858672   0.6280820   0.3776642  )
        19           Zr  tau(  19) = (   0.1331729   0.4627493   0.2141328  )
        20           Zr  tau(  20) = (   0.1328036   0.4661802   0.8725649  )
        21           Zr  tau(  21) = (   0.4385616   0.4627493   0.2141328  )
        22           Zr  tau(  22) = (   0.4389309   0.4661802   0.8725649  )
        23           H   tau(  23) = (   0.5936660   0.6160828   0.5430600  )

     number of k points=     1  Gaussian smearing, width (Ry)=  0.0220
                       cart. coord. in units 2pi/alat
        k(    1) = (   0.0000000   0.0000000   0.0000000), wk =   1.0000000

     Check: negative core charge=   -0.000002
     Generating pointlists ...
     new r_m :   0.0968 (alat units)  1.7092 (a.u.) for type    1
     new r_m :   0.1098 (alat units)  1.9374 (a.u.) for type    2
     new r_m :   0.0883 (alat units)  1.5585 (a.u.) for type    3
     new r_m :   0.1112 (alat units)  1.9625 (a.u.) for type    4
     new r_m :   0.0883 (alat units)  1.5585 (a.u.) for type    5

     Initial potential from superposition of free atoms

     starting charge     266.9726, renormalised to     277.0000

     negative rho (up, down):  9.216E-01 9.216E-01
     Starting wfcs are  287 randomized atomic wfcs

     Self-consistent Calculation

     iteration #  1     ecut=   120.00 Ry     beta= 0.70
     Davidson diagonalization with overlap
     ethr =  1.00E-02,  avg # of iterations =  2.0

     negative rho (up, down):  9.938E-01 9.935E-01

     total energy              =   -2930.56111347 Ry
     estimated scf accuracy    <     277.02592252 Ry

     total magnetization       =    -0.00 Bohr mag/cell
     absolute magnetization    =     0.09 Bohr mag/cell

[...]

     iteration # 12     ecut=   120.00 Ry     beta= 0.70
     Davidson diagonalization with overlap
     c_bands:  1 eigenvalues not converged
     ethr =  3.69E-06,  avg # of iterations = 15.5

[...]

     Magnetic moment per site  (integrated on atomic sphere of radius R)
     atom   1 (R=0.097)  charge=  8.3327  magn= -0.0001
     atom   2 (R=0.097)  charge=  8.1125  magn= -0.0001
     atom   3 (R=0.097)  charge=  8.1123  magn= -0.0001
     atom   4 (R=0.097)  charge=  8.1124  magn= -0.0002
     atom   5 (R=0.097)  charge=  8.1074  magn=  0.0001
     atom   6 (R=0.110)  charge= 10.3474  magn= -0.0004
     atom   7 (R=0.110)  charge= 10.3482  magn=  0.0002
     atom   8 (R=0.088)  charge=  8.1231  magn=  0.0000
     atom   9 (R=0.088)  charge=  8.1179  magn= -0.0002
     atom  10 (R=0.088)  charge=  8.1039  magn=  0.0010
     atom  11 (R=0.088)  charge=  8.1000  magn=  0.0008
     atom  12 (R=0.088)  charge=  8.1032  magn=  0.0028
     atom  13 (R=0.088)  charge=  8.1021  magn=  0.0007
     atom  14 (R=0.088)  charge=  8.1029  magn=  0.0012
     atom  15 (R=0.088)  charge=  8.0982  magn=  0.0010
     atom  16 (R=0.088)  charge=  8.1045  magn=  0.0031
     atom  17 (R=0.088)  charge=  8.1049  magn=  0.0009
     atom  18 (R=0.111)  charge=  9.4538  magn= -0.0001
     atom  19 (R=0.111)  charge=  9.0030  magn=  0.0023
     atom  20 (R=0.111)  charge=  8.9951  magn=  0.0010
     atom  21 (R=0.111)  charge=  9.0078  magn=  0.0026
     atom  22 (R=0.111)  charge=  8.9962  magn=  0.0011
     atom  23 (R=0.088)  charge=  1.0488  magn=  0.0002

     End of self-consistent calculation

 ------ SPIN UP ------------

          k = 0.0000 0.0000 0.0000 ( 61588 PWs)   bands (ev):

   -60.7887 -60.7833 -60.7437 -60.7368 -60.7122 -60.6991 -60.6685 -60.6553
   -60.5545 -60.4369 -54.3651 -54.2936 -54.2368 -54.1587 -52.7120 -46.2771
   -46.2627 -41.6668 -41.6374 -41.5659 -41.5533 -39.8147 -27.7914 -27.7809
   -27.7075 -27.6921 -27.6057 -27.5983 -27.4764 -27.4682 -27.4076 -27.3396
   -27.3183 -27.2755 -27.2657 -27.2467 -27.2299 -27.1868 -27.1715 -27.1580
[...]
     absolute magnetization    =     0.00 Bohr mag/cell

     convergence has been achieved in   5 iterations

     negative rho (up, down):  9.091E-01 9.091E-01

     Forces acting on atoms (cartesian axes, Ry/au):

     atom    1 type  1   force =    -0.01354994   -0.03138253    0.01903187
     atom    2 type  1   force =    -0.11972613   -0.01672989   -0.00099960
     atom    3 type  1   force =    -0.12113696    0.01222711    0.00476670
     atom    4 type  1   force =     0.11678783   -0.00605061    0.00000292
     atom    5 type  1   force =     0.15232391   -0.01709335    0.00720838
     atom    6 type  2   force =    -0.01179443   -0.01820592    0.00270222
     atom    7 type  2   force =    -0.01267421    0.00726179   -0.00982942
     atom    8 type  3   force =    -0.10935878    0.00351536   -0.00488564
     atom    9 type  3   force =     0.17067124    0.05655998   -0.00666519
     atom   10 type  3   force =    -0.01976932   -0.02780367   -0.06016309
     atom   11 type  3   force =    -0.01855428   -0.03343732    0.05486426
     atom   12 type  3   force =    -0.01473632    0.03463580   -0.05515797
     atom   13 type  3   force =    -0.01653073    0.03043203    0.05956073
     atom   14 type  3   force =     0.02040853   -0.03262940   -0.06297568
     atom   15 type  3   force =     0.01946047   -0.03787939    0.05839797
     atom   16 type  3   force =     0.01681734    0.04288873   -0.05730472
     atom   17 type  3   force =     0.01699588    0.03731905    0.05999485
     atom   18 type  4   force =    -0.01174178    0.01557242   -0.00752751
     atom   19 type  4   force =    -0.12368933   -0.00447075   -0.11631172
     atom   20 type  4   force =    -0.12886968    0.00572740    0.11632806
     atom   21 type  4   force =     0.12167111   -0.00973261   -0.11856190
     atom   22 type  4   force =     0.12854635    0.00112116    0.11871061
     atom   23 type  5   force =    -0.04155080   -0.01184541   -0.00118612
     The non-local contrib.  to forces
     atom    1 type  1   force =     0.00209015   -0.00985456    0.02331632
     atom    2 type  1   force =    -0.25561756   -0.15598825    0.01746746
     atom    3 type  1   force =    -0.23751663    0.15406305   -0.02605560
     atom    4 type  1   force =     0.24902819   -0.16452473    0.01760908
     atom    5 type  1   force =     0.14713593    0.20268302   -0.02557136
     atom    6 type  2   force =     0.00832798   -0.04844716   -0.06392933
     atom    7 type  2   force =    -0.01734655    0.06873950    0.05971377
     atom    8 type  3   force =    -0.26355108    0.00857533   -0.00493827
     atom    9 type  3   force =     0.23468764   -0.00117196   -0.00881025
     atom   10 type  3   force =    -0.20594289    0.00357500   -0.20659655
     atom   11 type  3   force =    -0.21162904    0.00231362    0.19592072
     atom   12 type  3   force =    -0.20593008   -0.02085942   -0.17581795
     atom   13 type  3   force =    -0.21329383   -0.00333227    0.20724265
     atom   14 type  3   force =     0.20324203    0.00102841   -0.21519215
     atom   15 type  3   force =     0.21108358    0.00509434    0.20162395
     atom   16 type  3   force =     0.22389534   -0.02843491   -0.16950954
     atom   17 type  3   force =     0.22884151   -0.01278083    0.20047430
     atom   18 type  4   force =    -0.01762075    0.06005111   -0.06312026
     atom   19 type  4   force =     0.06151300    0.00692885    0.06852466
     atom   20 type  4   force =     0.05697928   -0.01589764   -0.06509229
     atom   21 type  4   force =    -0.06628730    0.00584481    0.06870250
     atom   22 type  4   force =    -0.06128214   -0.01844581   -0.06268130
     atom   23 type  5   force =    -0.03023611    0.00504702   -0.00000631
     The ionic contribution  to forces
     atom    1 type  1   force =    -0.29369643   -4.79549463   14.38922917
     atom    2 type  1   force =   -39.71745903   -6.15349326    0.77966974
     atom    3 type  1   force =   -39.61313558    6.15935516   -0.71214358
     atom    4 type  1   force =    39.57325207   -6.24773821    0.77831097
     atom    5 type  1   force =    38.64602314    6.60887854   -0.70574111
     atom    6 type  2   force =    -0.30353160   -3.76337147  -14.30299207
     atom    7 type  2   force =    -0.20468575    3.61632195   14.10186736
     atom    8 type  3   force =   -52.32452953    0.08197948   -0.06583232
     atom    9 type  3   force =    51.22726378   -0.04680811   -0.03982914
     atom   10 type  3   force =   -36.04449262   -2.07255628  -23.09363762
     atom   11 type  3   force =   -35.11981271   -0.82601101   22.09793584
     atom   12 type  3   force =   -35.20919386    0.80133124  -22.16039003
     atom   13 type  3   force =   -35.99507872    2.18383202   23.08786049
     atom   14 type  3   force =    35.96071253   -2.06677403  -23.16680667
     atom   15 type  3   force =    35.03680241   -0.81965479   22.17041692
     atom   16 type  3   force =    35.03077809    0.85175715  -22.32656517
     atom   17 type  3   force =    35.81364308    2.23488168   23.25588739
     atom   18 type  4   force =    -0.18794567    4.38486380  -14.01499570
     atom   19 type  4   force =   -35.86004823    0.93657781  -25.53535009
     atom   20 type  4   force =   -35.84189352   -0.96905062   25.51214102
     atom   21 type  4   force =    35.75818510    0.90717185  -25.65037815
     atom   22 type  4   force =    35.73929209   -0.99992409   25.62724700
     atom   23 type  5   force =     3.92955096   -0.00607417   -0.02590425
     The local contribution  to forces
     atom    1 type  1   force =     0.27871741    4.76759689  -14.38288754
     atom    2 type  1   force =    39.86623114    6.29239371   -0.79284907
     atom    3 type  1   force =    39.74023777   -6.30330606    0.75088389
     atom    4 type  1   force =   -39.71553607    6.40565837   -0.79054825
     atom    5 type  1   force =   -38.63388380   -6.84322835    0.74623482
     atom    6 type  2   force =     0.28452757    3.79119629   14.36918956
     atom    7 type  2   force =     0.21022942   -3.66873415  -14.15880639
     atom    8 type  3   force =    52.50961030   -0.08562591    0.07002201
     atom    9 type  3   force =   -51.31438269    0.11145883    0.04719079
     atom   10 type  3   force =    36.25507488    2.03471191   23.25445761
     atom   11 type  3   force =    35.33724112    0.77609836  -22.25384896
     atom   12 type  3   force =    35.42541705   -0.73840692   22.29407379
     atom   13 type  3   force =    36.21546597   -2.13619708  -23.25000623
     atom   14 type  3   force =   -36.16601365    2.02557539   23.33325125
     atom   15 type  3   force =   -35.24955406    0.76076702  -22.32786908
     atom   16 type  3   force =   -35.26274373   -0.77144920   22.45178000
     atom   17 type  3   force =   -36.04709361   -2.17007245  -23.41006680
     atom   18 type  4   force =     0.19394533   -4.42623500   14.07110729
     atom   19 type  4   force =    35.68797021   -0.94797483   25.35778202
     atom   20 type  4   force =    35.66416021    0.99078232  -25.33681170
     atom   21 type  4   force =   -35.58232529   -0.92287941   25.47012671
     atom   22 type  4   force =   -35.55575299    1.01973318  -25.45149730
     atom   23 type  5   force =    -3.94008161   -0.00991166    0.02629367
     The core correction contribution to forces
     atom    1 type  1   force =     0.00009227    0.00192188   -0.00174278
     atom    2 type  1   force =    -0.01199519   -0.00119051    0.00081093
     atom    3 type  1   force =    -0.01102283    0.00202334   -0.00162284
     atom    4 type  1   force =     0.01166168   -0.00168291    0.00078033
     atom    5 type  1   force =    -0.00162632    0.01465792   -0.00153895
     atom    6 type  2   force =    -0.00047371    0.00227769    0.00257718
     atom    7 type  2   force =     0.00063112   -0.00353735   -0.00234486
     atom    8 type  3   force =    -0.03174684    0.00037571   -0.00046302
     atom    9 type  3   force =     0.02517182   -0.00518945   -0.00151468
     atom   10 type  3   force =    -0.02205833    0.00882486   -0.01722786
     atom   11 type  3   force =    -0.02407505    0.00875002    0.01785631
     atom   12 type  3   force =    -0.02286067   -0.00988091   -0.01501909
     atom   13 type  3   force =    -0.02300140   -0.00910240    0.01648905
     atom   14 type  3   force =     0.02149229    0.00971854   -0.01614492
     atom   15 type  3   force =     0.02272676    0.01029839    0.01658431
     atom   16 type  3   force =     0.02456329   -0.01142764   -0.01371637
     atom   17 type  3   force =     0.02369411   -0.01020548    0.01501557
     atom   18 type  4   force =     0.00089838   -0.00339567    0.00313786
     atom   19 type  4   force =    -0.00974099    0.00014966   -0.00932643
     atom   20 type  4   force =    -0.00966315    0.00049344    0.00925698
     atom   21 type  4   force =     0.01022931    0.00042354   -0.00912201
     atom   22 type  4   force =     0.01009067    0.00077220    0.00895095
     atom   23 type  5   force =     0.00000000    0.00000000    0.00000000
     The Hubbard contrib.    to forces
     atom    1 type  1   force =     0.00000000    0.00000000    0.00000000
     atom    2 type  1   force =     0.00000000    0.00000000    0.00000000
     atom    3 type  1   force =     0.00000000    0.00000000    0.00000000
     atom    4 type  1   force =     0.00000000    0.00000000    0.00000000
     atom    5 type  1   force =     0.00000000    0.00000000    0.00000000
     atom    6 type  2   force =     0.00000000    0.00000000    0.00000000
     atom    7 type  2   force =     0.00000000    0.00000000    0.00000000
     atom    8 type  3   force =     0.00000000    0.00000000    0.00000000
     atom    9 type  3   force =     0.00000000    0.00000000    0.00000000
     atom   10 type  3   force =     0.00000000    0.00000000    0.00000000
     atom   11 type  3   force =     0.00000000    0.00000000    0.00000000
     atom   12 type  3   force =     0.00000000    0.00000000    0.00000000
     atom   13 type  3   force =     0.00000000    0.00000000    0.00000000
     atom   14 type  3   force =     0.00000000    0.00000000    0.00000000
     atom   15 type  3   force =     0.00000000    0.00000000    0.00000000
     atom   16 type  3   force =     0.00000000    0.00000000    0.00000000
     atom   17 type  3   force =     0.00000000    0.00000000    0.00000000
     atom   18 type  4   force =     0.00000000    0.00000000    0.00000000
     atom   19 type  4   force =     0.00000000    0.00000000    0.00000000
     atom   20 type  4   force =     0.00000000    0.00000000    0.00000000
     atom   21 type  4   force =     0.00000000    0.00000000    0.00000000
     atom   22 type  4   force =     0.00000000    0.00000000    0.00000000
     atom   23 type  5   force =     0.00000000    0.00000000    0.00000000
     The SCF correction term to forces
     atom    1 type  1   force =    -0.00053588    0.00437939   -0.00822214
     atom    2 type  1   force =    -0.00066804    0.00147994   -0.00543751
     atom    3 type  1   force =     0.00051778    0.00002313   -0.00563402
     atom    4 type  1   force =    -0.00140057    0.00216838   -0.00548806
     atom    5 type  1   force =    -0.00510757   -0.00015298   -0.00551386
     atom    6 type  2   force =    -0.00042720    0.00007024   -0.00148196
     atom    7 type  2   force =    -0.00128498   -0.00559665   -0.00959814
     atom    8 type  3   force =     0.00107584   -0.00185775   -0.00301289
     atom    9 type  3   force =    -0.00185186   -0.00179782   -0.00304076
     atom   10 type  3   force =    -0.00213289   -0.00242765    0.00350248
     atom   11 type  3   force =    -0.00006113    0.00534320   -0.00233850
     atom   12 type  3   force =    -0.00195129    0.00238331    0.00265647
     atom   13 type  3   force =    -0.00040530   -0.00483673   -0.00136408
     atom   14 type  3   force =     0.00119280   -0.00224620    0.00257797
     atom   15 type  3   force =    -0.00138074    0.00554715   -0.00169698
     atom   16 type  3   force =     0.00054180    0.00237484    0.00136751
     atom   17 type  3   force =    -0.00187175   -0.00457236   -0.00065445
     atom   18 type  4   force =    -0.00080160    0.00021970   -0.00299555
     atom   19 type  4   force =    -0.00316585   -0.00022074    0.00271927
     atom   20 type  4   force =     0.00176497   -0.00066858   -0.00250480
     atom   21 type  4   force =     0.00208677   -0.00036189    0.00277020
     atom   22 type  4   force =    -0.00358381   -0.00108281   -0.00264759
     atom   23 type  5   force =    -0.00056657   -0.00097509   -0.00090807

     Total force =     0.523535     Total SCF correction =     0.025572

     Computing stress (Cartesian axis) and pressure

     negative rho (up, down):  9.091E-01 9.091E-01
          total   stress  (Ry/bohr**3)                   (kbar)     P=       81.93
   0.00063429   0.00000166  -0.00000092           93.31        0.24       -0.13
   0.00000166   0.00063982  -0.00001279            0.24       94.12       -1.88
  -0.00000092  -0.00001279   0.00039682           -0.13       -1.88       58.37

     Entering Dynamics:    iteration =    20
                           time      =   0.0041 pico-seconds

ATOMIC_POSITIONS (angstrom)
Hf            2.6718296983        2.8286725651        6.6040691745
Hf            1.2534227894        1.2878721991        5.0584284671
Hf            1.2559049903        7.3917243577        5.0881070793
Hf            4.0902945296        1.2879244468        5.0584229230
Hf            4.0876979275        7.3914276910        5.0881212274
Nb            2.6718643250        2.7983926153        3.5157794949
Nb            2.6717603398        5.8783949580        6.6346249191
Ta            1.2098339862        4.3428095650        5.0710713505
Ta            4.0959035425        4.3048252060        5.0711568478
Ta            1.3087583595        1.3155730094        2.0580824123
Ta            1.3043216522        1.3097675051        8.0952170114
Ta            1.3056110361        7.3780137808        2.0455992352
Ta            1.3092834860        7.3671923887        8.0866975360
Ta            4.0347181535        1.3155506528        2.0580698801
Ta            4.0391775731        1.3097739279        8.0952339216
Ta            4.0379362947        7.3780452383        2.0456222527
Ta            4.0342461606        7.3672345382        8.0866837807
Zr            2.6717590636        5.8685081686        3.5273123387
Zr            1.2426889018        4.3237076109        1.9974009838
Zr            1.2391549037        4.3559988386        8.1523835816
Zr            4.1007005429        4.3236457061        1.9974502705
Zr            4.1042884793        4.3559604755        8.1523157179
H             5.9932294910        6.2319421051        5.0726049266

     kinetic energy (Ekin) =           8.07245259 Ry
     temperature           =       38622.40784825 K
     Ekin + Etot (const)   =       -2934.98657396 Ry
     Ions kinetic stress =          142.57 (kbar)
                                    209.49         213.62           0.04
                                    213.62         218.08           0.05
                                      0.04           0.05           0.14

     Linear momentum :   -0.0000000000    0.0000000000    0.0000000000

     The maximum number of steps has been reached.

     End of molecular dynamics calculation

     diffusion coefficients :
     atom     1   D =       0.00000002 cm^2/s
     atom     2   D =       0.00000001 cm^2/s
     atom     3   D =       0.00000002 cm^2/s
     atom     4   D =       0.00000006 cm^2/s
     atom     5   D =       0.00000005 cm^2/s
     atom     6   D =       0.00000002 cm^2/s
     atom     7   D =       0.00000003 cm^2/s
     atom     8   D =       0.00000002 cm^2/s
     atom     9   D =       0.00001029 cm^2/s
     atom    10   D =       0.00000002 cm^2/s
     atom    11   D =       0.00000002 cm^2/s
     atom    12   D =       0.00000003 cm^2/s
     atom    13   D =       0.00000003 cm^2/s
     atom    14   D =       0.00000003 cm^2/s
     atom    15   D =       0.00000003 cm^2/s
     atom    16   D =       0.00000004 cm^2/s
     atom    17   D =       0.00000004 cm^2/s
     atom    18   D =       0.00000003 cm^2/s
     atom    19   D =       0.00000004 cm^2/s
     atom    20   D =       0.00000005 cm^2/s
     atom    21   D =       0.00000012 cm^2/s
     atom    22   D =       0.00000013 cm^2/s
     atom    23   D =       0.00176061 cm^2/s

     < D > =       0.00007703 cm^2/s

     Writing all to output data dir outdir/pwscf.save/

     General routines

     Parallel routines

   This run was terminated on:  20:22: 6  12Jun2023

   JOB DONE.