     Program PWSCF v.7.2 starts on 14Jun2023 at 23:10:44

     Reading input from md_data/md_Hf5Nb2Ta10Zr5H_20steps_200eV_incident30_polar60.in
Warning: card &CELL ignored
Warning: card / ignored

     Current dimensions of program PWSCF are:
     Max number of different atomic species (ntypx) = 10
     Max number of k-points (npk) =  40000
     Max angular momentum in pseudopotentials (lmaxx) =  4

     File outdir/pwscf.md deleted, as requested

     gamma-point specific algorithms are used

     R & G space division:  proc/nbgrp/npool/nimage =      42
     Subspace diagonalization in iterative solution of the eigenvalue problem:
     one sub-group per band group will be used

     Using Slab Decomposition

     bravais-lattice index     =            0
     lattice parameter (alat)  =      17.6500  a.u.
     unit-cell volume          =    5552.8853 (a.u.)^3
     number of atoms/cell      =           23
     number of atomic types    =            5
     number of electrons       =       277.00
     number of Kohn-Sham states=          167
     kinetic-energy cutoff     =     120.0000  Ry
     charge density cutoff     =     480.0000  Ry
     scf convergence threshold =      1.0E-03
     mixing beta               =       0.7000
     number of iterations used =            8  TF        mixing
     energy convergence thresh.=      0.0E+00
     force convergence thresh. =      0.0E+00
     Exchange-correlation=  SLA  PW   PBX  PBC
                           (   1   4   3   4   0   0   0)
     nstep                     =           20

     celldm(1)=  17.650041  celldm(2)=   0.000000  celldm(3)=   0.000000
     celldm(4)=   0.000000  celldm(5)=   0.000000  celldm(6)=   0.000000

     crystal axes: (cart. coord. in units of alat)
               a(1) = (   1.000000   0.000000   0.000000 )
               a(2) = (   0.000000   0.929336   0.000000 )
               a(3) = (   0.000000   0.000000   1.086698 )

     reciprocal axes: (cart. coord. in units 2 pi/alat)
               b(1) = (  1.000000  0.000000  0.000000 )
               b(2) = (  0.000000  1.076037  0.000000 )
               b(3) = (  0.000000  0.000000  0.920219 )

     PseudoPot. # 1 for Hf read from file:
     q-e/pseudo/hf_pbe_v1.uspp.F.UPF
     MD5 check sum: 8ee9378dfe14276e333edf04c5e4aa26
     Pseudo is Ultrasoft + core correction, Zval = 12.0
     Generated by new atomic code, or converted to UPF format
     Using radial grid of  921 points,  8 beta functions with:
                l(1) =   0
                l(2) =   0
                l(3) =   0
                l(4) =   1
                l(5) =   1
                l(6) =   2
                l(7) =   2
                l(8) =   3
     Q(r) pseudized with  6 coefficients,  rinner =    1.200   1.200   1.200
                                                       1.200   1.200   1.200
                                                       1.200

     PseudoPot. # 2 for Nb read from file:
     q-e/pseudo/nb_pbe_v1.uspp.F.UPF
     MD5 check sum: 573aab8a2fa660278ed4a62cd769473f
     Pseudo is Ultrasoft + core correction, Zval = 13.0
     Generated by new atomic code, or converted to UPF format
     Using radial grid of  887 points,  6 beta functions with:
                l(1) =   0
                l(2) =   0
                l(3) =   1
                l(4) =   1
                l(5) =   2
                l(6) =   2
     Q(r) pseudized with  6 coefficients,  rinner =    1.000   1.000   1.000
                                                       1.000   1.000

     PseudoPot. # 3 for Ta read from file:
     q-e/pseudo/ta_pbe_v1.uspp.F.UPF
     MD5 check sum: f8bbe9446314a3b8ea5d9f3e3836c939
     Pseudo is Ultrasoft + core correction, Zval = 13.0
     Generated by new atomic code, or converted to UPF format
     Using radial grid of  921 points,  7 beta functions with:
                l(1) =   0
                l(2) =   0
                l(3) =   1
                l(4) =   1
                l(5) =   2
                l(6) =   2
                l(7) =   3
     Q(r) pseudized with  6 coefficients,  rinner =    1.300   1.300   1.300
                                                       1.300   1.300   1.300
                                                       1.300

     PseudoPot. # 4 for Zr read from file:
     q-e/pseudo/zr_pbe_v1.uspp.F.UPF
     MD5 check sum: 5db81b1e868ab7776c4564c113de050b
     Pseudo is Ultrasoft + core correction, Zval = 12.0
     Generated by new atomic code, or converted to UPF format
     Using radial grid of  887 points,  6 beta functions with:
                l(1) =   0
                l(2) =   0
                l(3) =   1
                l(4) =   1
                l(5) =   2
                l(6) =   2
     Q(r) pseudized with  6 coefficients,  rinner =    1.200   1.200   1.200
                                                       1.200   1.200

     PseudoPot. # 5 for H  read from file:
     q-e/pseudo/h_pbe_v1.4.uspp.F.UPF
     MD5 check sum: 761ae9a214b05c3daf00ab9f6b793d6f
     Pseudo is Ultrasoft, Zval =  1.0
     Generated by new atomic code, or converted to UPF format
     Using radial grid of  615 points,  2 beta functions with:
                l(1) =   0
                l(2) =   0
     Q(r) pseudized with  8 coefficients,  rinner =    0.700

     atomic species   valence    mass     pseudopotential
        Hf            12.00   178.49000     Hf( 1.00)
        Nb            13.00    92.90637     Nb( 1.00)
        Ta            13.00   180.94788     Ta( 1.00)
        Zr            12.00    91.22400     Zr( 1.00)
        H              1.00     2.01400     H ( 1.00)

     Starting magnetic structure
     atomic species   magnetization
        Hf           0.000
        Nb           0.000
        Ta           0.000
        Zr           0.000
        H            0.000

     No symmetry found

   Cartesian axes

     site n.     atom                  positions (alat units)
         1           Hf  tau(   1) = (   0.2858672   0.3026898   0.7070626  )
         2           Hf  tau(   2) = (   0.1341532   0.1377178   0.5415917  )
         3           Hf  tau(   3) = (   0.1344204   0.7911996   0.5447610  )
         4           Hf  tau(   4) = (   0.4375813   0.1377178   0.5415917  )
         5           Hf  tau(   5) = (   0.4373140   0.7911996   0.5447610  )
         6           Nb  tau(   6) = (   0.2858672   0.2994572   0.3764008  )
         7           Nb  tau(   7) = (   0.2858672   0.6291626   0.7103852  )
         8           Ta  tau(   8) = (   0.1294832   0.4647675   0.5429471  )
         9           Ta  tau(   9) = (   0.4422513   0.4647675   0.5429471  )
        10           Ta  tau(  10) = (   0.1399628   0.1406984   0.2204260  )
        11           Ta  tau(  11) = (   0.1394848   0.1400847   0.8666573  )
        12           Ta  tau(  12) = (   0.1396156   0.7897030   0.2190832  )
        13           Ta  tau(  13) = (   0.1400119   0.7885528   0.8657390  )
        14           Ta  tau(  14) = (   0.4317717   0.1406984   0.2204260  )
        15           Ta  tau(  15) = (   0.4322496   0.1400847   0.8666573  )
        16           Ta  tau(  16) = (   0.4321189   0.7897030   0.2190832  )
        17           Ta  tau(  17) = (   0.4317226   0.7885528   0.8657390  )
        18           Zr  tau(  18) = (   0.2858672   0.6280820   0.3776642  )
        19           Zr  tau(  19) = (   0.1331729   0.4627493   0.2141328  )
        20           Zr  tau(  20) = (   0.1328036   0.4661802   0.8725649  )
        21           Zr  tau(  21) = (   0.4385616   0.4627493   0.2141328  )
        22           Zr  tau(  22) = (   0.4389309   0.4661802   0.8725649  )
        23           H   tau(  23) = (   0.6276957   0.5182013   0.6357822  )

     number of k points=     1  Gaussian smearing, width (Ry)=  0.0220
                       cart. coord. in units 2pi/alat
        k(    1) = (   0.0000000   0.0000000   0.0000000), wk =   1.0000000

     Check: negative core charge=   -0.000002
     Generating pointlists ...
     new r_m :   0.1117 (alat units)  1.9717 (a.u.) for type    1
     new r_m :   0.1098 (alat units)  1.9374 (a.u.) for type    2
     new r_m :   0.0883 (alat units)  1.5592 (a.u.) for type    3
     new r_m :   0.1112 (alat units)  1.9625 (a.u.) for type    4
     new r_m :   0.0883 (alat units)  1.5592 (a.u.) for type    5

     Initial potential from superposition of free atoms

     starting charge     266.9726, renormalised to     277.0000

     negative rho (up, down):  9.217E-01 9.217E-01
     Starting wfcs are  287 randomized atomic wfcs

     Self-consistent Calculation

     iteration #  1     ecut=   120.00 Ry     beta= 0.70
     Davidson diagonalization with overlap
     ethr =  1.00E-02,  avg # of iterations =  2.0

     negative rho (up, down):  9.969E-01 9.965E-01

     total energy              =   -2930.57936064 Ry
     estimated scf accuracy    <     276.95898303 Ry

     total magnetization       =    -0.00 Bohr mag/cell
     absolute magnetization    =     0.09 Bohr mag/cell

[...]

     iteration # 12     ecut=   120.00 Ry     beta= 0.70
     Davidson diagonalization with overlap
     c_bands:  1 eigenvalues not converged
     ethr =  1.99E-06,  avg # of iterations = 13.5

[...]

     Magnetic moment per site  (integrated on atomic sphere of radius R)
     atom   1 (R=0.112)  charge=  9.4632  magn=  0.0001
     atom   2 (R=0.112)  charge=  9.0594  magn=  0.0004
     atom   3 (R=0.112)  charge=  9.0583  magn=  0.0006
     atom   4 (R=0.112)  charge=  9.0579  magn= -0.0001
     atom   5 (R=0.112)  charge=  9.0568  magn=  0.0001
     atom   6 (R=0.110)  charge= 10.3496  magn=  0.0008
     atom   7 (R=0.110)  charge= 10.3496  magn=  0.0001
     atom   8 (R=0.088)  charge=  8.1283  magn=  0.0000
     atom   9 (R=0.088)  charge=  8.1181  magn=  0.0004
     atom  10 (R=0.088)  charge=  8.1074  magn= -0.0004
     atom  11 (R=0.088)  charge=  8.1049  magn= -0.0000
     atom  12 (R=0.088)  charge=  8.1085  magn= -0.0005
     atom  13 (R=0.088)  charge=  8.1052  magn= -0.0001
     atom  14 (R=0.088)  charge=  8.1064  magn= -0.0004
     atom  15 (R=0.088)  charge=  8.1053  magn= -0.0003
     atom  16 (R=0.088)  charge=  8.1074  magn= -0.0010
     atom  17 (R=0.088)  charge=  8.1092  magn=  0.0002
     atom  18 (R=0.111)  charge=  9.4546  magn=  0.0004
     atom  19 (R=0.111)  charge=  8.9974  magn= -0.0020
     atom  20 (R=0.111)  charge=  8.9969  magn= -0.0003
     atom  21 (R=0.111)  charge=  8.9939  magn= -0.0021
     atom  22 (R=0.111)  charge=  8.9910  magn= -0.0001
     atom  23 (R=0.088)  charge=  0.9713  magn= -0.0000

     End of self-consistent calculation

 ------ SPIN UP ------------

          k = 0.0000 0.0000 0.0000 ( 61588 PWs)   bands (ev):

   -60.7905 -60.7860 -60.7458 -60.7384 -60.7131 -60.7082 -60.6682 -60.6643
   -60.5122 -60.4224 -54.4076 -54.3562 -54.2810 -54.2308 -52.7039 -46.2772
   -46.2663 -41.6732 -41.6259 -41.5680 -41.5253 -39.8083 -27.7922 -27.7874
   -27.7063 -27.7010 -27.6034 -27.5981 -27.4795 -27.4685 -27.3758 -27.3434
   -27.3071 -27.2788 -27.2677 -27.2489 -27.2369 -27.1818 -27.1754 -27.1484
   -27.0923 -27.0844 -27.0248 -26.9690 -26.9641 -26.9588 -26.9470 -26.9126
[...]

     convergence has been achieved in   4 iterations

     negative rho (up, down):  9.089E-01 9.089E-01

     Forces acting on atoms (cartesian axes, Ry/au):

     atom    1 type  1   force =    -0.00665591   -0.02932766    0.01275167
     atom    2 type  1   force =    -0.11510352   -0.01915989   -0.00959968
     atom    3 type  1   force =    -0.11888993    0.01442082   -0.00328642
     atom    4 type  1   force =     0.11549736   -0.01812598   -0.00936268
     atom    5 type  1   force =     0.11866092    0.01200717   -0.00175930
     atom    6 type  2   force =    -0.01442079   -0.02252661   -0.00199908
     atom    7 type  2   force =    -0.00011463    0.01194407   -0.00756632
     atom    8 type  3   force =    -0.12656239    0.00494241   -0.00082516
     atom    9 type  3   force =     0.14869264    0.01461477    0.01587197
     atom   10 type  3   force =    -0.01963430   -0.03163910   -0.05650786
     atom   11 type  3   force =    -0.01560708   -0.03381454    0.05745878
     atom   12 type  3   force =    -0.01880395    0.03731879   -0.05073145
     atom   13 type  3   force =    -0.02514541    0.03040466    0.06151158
     atom   14 type  3   force =     0.02234282   -0.03463015   -0.05768256
     atom   15 type  3   force =     0.01607236   -0.03543835    0.05755855
     atom   16 type  3   force =     0.01927444    0.03856660   -0.05200341
     atom   17 type  3   force =     0.02604422    0.03081154    0.06167704
     atom   18 type  4   force =    -0.00914440    0.02991836   -0.01832733
     atom   19 type  4   force =    -0.12449057   -0.00528754   -0.11614351
     atom   20 type  4   force =    -0.15623113    0.00777205    0.11723228
     atom   21 type  4   force =     0.12529811   -0.00622992   -0.11945715
     atom   22 type  4   force =     0.15418321    0.00809004    0.11429552
     atom   23 type  5   force =     0.00473792   -0.00463154    0.00689454
     The non-local contrib.  to forces
     atom    1 type  1   force =     0.00217525   -0.01131623    0.01546216
     atom    2 type  1   force =    -0.24709920   -0.16472871    0.01105480
     atom    3 type  1   force =    -0.24943462    0.16006994   -0.02848457
     atom    4 type  1   force =     0.24931458   -0.16740169    0.01089417
     atom    5 type  1   force =     0.25293624    0.15970608   -0.02882852
     atom    6 type  2   force =     0.00574788   -0.04303264   -0.04693593
     atom    7 type  2   force =     0.00390197    0.06026061    0.05426707
     atom    8 type  3   force =    -0.29513041    0.00358753    0.00756606
     atom    9 type  3   force =     0.25217697    0.00391491    0.00225527
     atom   10 type  3   force =    -0.20505693    0.00238400   -0.20922983
     atom   11 type  3   force =    -0.21956567    0.00545988    0.19972164
     atom   12 type  3   force =    -0.20040320   -0.01810464   -0.18321985
     atom   13 type  3   force =    -0.24459244   -0.01080771    0.20104300
     atom   14 type  3   force =     0.20261470    0.00256368   -0.20764070
     atom   15 type  3   force =     0.21591495    0.00456058    0.19918697
     atom   16 type  3   force =     0.19570588   -0.01862295   -0.18277850
     atom   17 type  3   force =     0.24244716   -0.00816749    0.20361294
     atom   18 type  4   force =     0.00064676    0.05256886   -0.05717670
     atom   19 type  4   force =     0.05821695    0.00832232    0.06839949
     atom   20 type  4   force =     0.05596046   -0.01065544   -0.07964400
     atom   21 type  4   force =    -0.06311974    0.00790686    0.07579929
     atom   22 type  4   force =    -0.06476837   -0.01064928   -0.07991098
     atom   23 type  5   force =     0.00103817   -0.00150295    0.00136009
     The ionic contribution  to forces
     atom    1 type  1   force =     0.08918866   -4.77238712   14.35952468
     atom    2 type  1   force =   -39.64036746   -6.23847200    0.73789464
     atom    3 type  1   force =   -39.46825706    6.27063881   -0.81208544
     atom    4 type  1   force =    39.74844077   -6.26980111    0.80782063
     atom    5 type  1   force =    39.63480001    6.05261509   -0.74297550
     atom    6 type  2   force =    -0.29190628   -4.10209685  -14.42971707
     atom    7 type  2   force =     0.30018838    3.68345256   14.06697524
     atom    8 type  3   force =   -52.33297670    0.03747470   -0.14792092
     atom    9 type  3   force =    51.64799878    0.39324947    0.20845323
     atom   10 type  3   force =   -36.02066661   -2.12475951  -23.06313043
     atom   11 type  3   force =   -34.99225586   -0.86643134   22.09069059
     atom   12 type  3   force =   -35.17578416    0.83792209  -22.10600751
     atom   13 type  3   force =   -35.75754222    2.30342690   23.10433626
     atom   14 type  3   force =    36.04364526   -2.14970923  -23.07317655
     atom   15 type  3   force =    35.05704759   -0.82463493   22.04798378
     atom   16 type  3   force =    35.21707271    0.82793102  -22.07870090
     atom   17 type  3   force =    35.84476808    2.22386302   23.02282810
     atom   18 type  4   force =    -0.07308607    4.80744670  -14.16493617
     atom   19 type  4   force =   -35.87805500    0.94583051  -25.55499012
     atom   20 type  4   force =   -35.49142232   -1.04527686   25.60034037
     atom   21 type  4   force =    35.95024041    0.98250113  -25.65664605
     atom   22 type  4   force =    35.67774798   -1.00806444   25.29422504
     atom   23 type  5   force =    -0.08881887    0.03528139    0.48921412
     The local contribution  to forces
     atom    1 type  1   force =    -0.10939932    4.75230770  -14.37454572
     atom    2 type  1   force =    39.77781646    6.38513790   -0.78426320
     atom    3 type  1   force =    39.60343824   -6.41778008    0.81368430
     atom    4 type  1   force =   -39.90017873    6.42051851   -0.85168338
     atom    5 type  1   force =   -39.78837950   -6.20076040    0.74960915
     atom    6 type  2   force =     0.25559074    4.11376960   14.43986202
     atom    7 type  2   force =    -0.31740058   -3.72982813  -14.14422379
     atom    8 type  3   force =    52.52576015   -0.03733267    0.11525206
     atom    9 type  3   force =   -51.79585175   -0.38639924   -0.22062978
     atom   10 type  3   force =    36.21840763    2.06950156   23.22737897
     atom   11 type  3   force =    35.20830384    0.82108054  -22.23815160
     atom   12 type  3   force =    35.36767917   -0.75826748   22.24975851
     atom   13 type  3   force =    35.98636269   -2.25486647  -23.24838526
     atom   14 type  3   force =   -36.26289967    2.09795389   23.23745314
     atom   15 type  3   force =   -35.29004503    0.78098507  -22.19816096
     atom   16 type  3   force =   -35.43252256   -0.75087007   22.22347148
     atom   17 type  3   force =   -36.09348257   -2.18011122  -23.17353435
     atom   18 type  4   force =     0.04712386   -4.82313057   14.17218748
     atom   19 type  4   force =    35.69642780   -0.96151757   25.37487263
     atom   20 type  4   force =    35.27256358    1.06275174  -25.40583566
     atom   21 type  4   force =   -35.78209305   -0.99984605   25.46866543
     atom   22 type  4   force =   -35.48089800    1.02403233  -25.10124189
     atom   23 type  5   force =     0.09532645   -0.03762766   -0.48440592
     The core correction contribution to forces
     atom    1 type  1   force =     0.00035406    0.00111853   -0.00122898
     atom    2 type  1   force =    -0.01251111   -0.00212710    0.00109935
     atom    3 type  1   force =    -0.01243793    0.00364544   -0.00106893
     atom    4 type  1   force =     0.01343426   -0.00241998    0.00081699
     atom    5 type  1   force =     0.01335198    0.00416301   -0.00139326
     atom    6 type  2   force =    -0.00040869    0.00183685    0.00166445
     atom    7 type  2   force =    -0.00016305   -0.00304855   -0.00224291
     atom    8 type  3   force =    -0.03419731    0.00022606    0.00103013
     atom    9 type  3   force =     0.03166821    0.00022265    0.00127373
     atom   10 type  3   force =    -0.02234053    0.00945023   -0.01707675
     atom   11 type  3   force =    -0.02329103    0.00948328    0.01578834
     atom   12 type  3   force =    -0.02275262   -0.01020411   -0.01640876
     atom   13 type  3   force =    -0.02390751   -0.00819718    0.01545783
     atom   14 type  3   force =     0.02215506    0.00952109   -0.01648934
     atom   15 type  3   force =     0.02304805    0.00968962    0.01577701
     atom   16 type  3   force =     0.02257720   -0.01049496   -0.01605980
     atom   17 type  3   force =     0.02371798   -0.00849578    0.01563702
     atom   18 type  4   force =    -0.00013801   -0.00271363    0.00248079
     atom   19 type  4   force =    -0.00973194    0.00007658   -0.00937544
     atom   20 type  4   force =    -0.00999364    0.00028863    0.01009891
     atom   21 type  4   force =     0.00996988    0.00009765   -0.00986793
     atom   22 type  4   force =     0.01040697    0.00026899    0.01001702
     atom   23 type  5   force =     0.00000000    0.00000000    0.00000000
     The Hubbard contrib.    to forces
     atom    1 type  1   force =     0.00000000    0.00000000    0.00000000
     atom    2 type  1   force =     0.00000000    0.00000000    0.00000000
     atom    3 type  1   force =     0.00000000    0.00000000    0.00000000
     atom    4 type  1   force =     0.00000000    0.00000000    0.00000000
     atom    5 type  1   force =     0.00000000    0.00000000    0.00000000
     atom    6 type  2   force =     0.00000000    0.00000000    0.00000000
     atom    7 type  2   force =     0.00000000    0.00000000    0.00000000
     atom    8 type  3   force =     0.00000000    0.00000000    0.00000000
     atom    9 type  3   force =     0.00000000    0.00000000    0.00000000
     atom   10 type  3   force =     0.00000000    0.00000000    0.00000000
     atom   11 type  3   force =     0.00000000    0.00000000    0.00000000
     atom   12 type  3   force =     0.00000000    0.00000000    0.00000000
     atom   13 type  3   force =     0.00000000    0.00000000    0.00000000
     atom   14 type  3   force =     0.00000000    0.00000000    0.00000000
     atom   15 type  3   force =     0.00000000    0.00000000    0.00000000
     atom   16 type  3   force =     0.00000000    0.00000000    0.00000000
     atom   17 type  3   force =     0.00000000    0.00000000    0.00000000
     atom   18 type  4   force =     0.00000000    0.00000000    0.00000000
     atom   19 type  4   force =     0.00000000    0.00000000    0.00000000
     atom   20 type  4   force =     0.00000000    0.00000000    0.00000000
     atom   21 type  4   force =     0.00000000    0.00000000    0.00000000
     atom   22 type  4   force =     0.00000000    0.00000000    0.00000000
     atom   23 type  5   force =     0.00000000    0.00000000    0.00000000
     The SCF correction term to forces
     atom    1 type  1   force =     0.00955917    0.00097453    0.01169493
     atom    2 type  1   force =     0.00559153    0.00105509    0.02277014
     atom    3 type  1   force =     0.00633517   -0.00212821    0.02282360
     atom    4 type  1   force =     0.00302021    0.00100336    0.02094431
     atom    5 type  1   force =     0.00448592   -0.00369154    0.01998424
     atom    6 type  2   force =     0.01508929    0.00702150    0.03128286
     atom    7 type  2   force =     0.01189238    0.00113266    0.01581347
     atom    8 type  3   force =     0.00851561    0.00101187    0.02140290
     atom    9 type  3   force =     0.01123416    0.00365206    0.02267492
     atom   10 type  3   force =     0.00855587    0.01180969    0.00370558
     atom   11 type  3   force =     0.00973536   -0.00338182   -0.01243479
     atom   12 type  3   force =     0.01099059   -0.01400199    0.00330156
     atom   13 type  3   force =     0.01306780    0.00087420   -0.01278486
     atom   14 type  3   force =     0.01536119    0.00506549    0.00032628
     atom   15 type  3   force =     0.00864054   -0.00601361   -0.00907285
     atom   16 type  3   force =     0.01497494   -0.00935136    0.00021972
     atom   17 type  3   force =     0.00712729    0.00374810   -0.00871127
     atom   18 type  4   force =     0.01484279   -0.00422793    0.02727267
     atom   19 type  4   force =     0.00718535    0.00202571    0.00310533
     atom   20 type  4   force =     0.01519453    0.00068906   -0.00957195
     atom   21 type  4   force =     0.00883434    0.00313557    0.00074752
     atom   22 type  4   force =     0.01022836    0.00252752   -0.01063827
     atom   23 type  5   force =    -0.00427411   -0.00075724   -0.00111834

     Total force =     0.520547     Total SCF correction =     0.093923
     SCF correction compared to forces is large: reduce conv_thr to get better values

     Computing stress (Cartesian axis) and pressure

     negative rho (up, down):  9.089E-01 9.089E-01
          total   stress  (Ry/bohr**3)                   (kbar)     P=       82.02
   0.00062134   0.00000347   0.00000415           91.40        0.51        0.61
   0.00000347   0.00065592  -0.00001076            0.51       96.49       -1.58
   0.00000415  -0.00001076   0.00039550            0.61       -1.58       58.18

     Entering Dynamics:    iteration =    20
                           time      =   0.0041 pico-seconds

ATOMIC_POSITIONS (angstrom)
Hf            2.6731216085        2.8277890971        6.6056114754
Hf            1.2547132163        1.2869958392        5.0599886621
Hf            1.2572168515        7.3908305673        5.0896485300
Hf            4.0914180389        1.2870140263        5.0599576725
Hf            4.0889790836        7.3907975847        5.0896572074
Nb            2.6731069914        2.7974949616        3.5172916248
Nb            2.6729382374        5.8774584824        6.6362852380
Ta            1.2110851990        4.3419040190        5.0727175637
Ta            4.0586531046        4.3196286263        5.0329825373
Ta            1.3100773787        1.3146421400        2.0596747144
Ta            1.3056180965        1.3088634087        8.0967564808
Ta            1.3068722213        7.3771268522        2.0471578625
Ta            1.3105732104        7.3663225567        8.0882209071
Ta            4.0360703978        1.3147091201        2.0596784337
Ta            4.0405106571        1.3088700171        8.0967409611
Ta            4.0392973903        7.3770888529        2.0471805952
Ta            4.0355507311        7.3663436731        8.0881995687
Zr            2.6730975754        5.8677572826        3.5287457208
Zr            1.2440087845        4.3228753657        1.9989266104
Zr            1.2404510722        4.3551249270        8.1538394686
Zr            4.1021291118        4.3228321241        1.9989005517
Zr            4.1058997424        4.3551409323        8.1537603182
H             7.6137784612        5.3561354193        6.9449538255

     kinetic energy (Ekin) =          15.97340906 Ry
     temperature           =       76424.29761793 K
     Ekin + Etot (const)   =       -2926.97397068 Ry
     Ions kinetic stress =          282.11 (kbar)
                                    613.63         179.39         332.36
                                    179.39          52.48          97.20
                                    332.36          97.20         180.22

     Linear momentum :    0.0000000000    0.0000000000   -0.0000000000

     The maximum number of steps has been reached.

     End of molecular dynamics calculation

     diffusion coefficients :
     atom     1   D =       0.00000005 cm^2/s
     atom     2   D =       0.00000002 cm^2/s
     atom     3   D =       0.00000003 cm^2/s
     atom     4   D =       0.00000009 cm^2/s
     atom     5   D =       0.00000010 cm^2/s
     atom     6   D =       0.00000005 cm^2/s
     atom     7   D =       0.00000005 cm^2/s
     atom     8   D =       0.00000003 cm^2/s
     atom     9   D =       0.00002907 cm^2/s
     atom    10   D =       0.00000004 cm^2/s
     atom    11   D =       0.00000005 cm^2/s
     atom    12   D =       0.00000004 cm^2/s
     atom    13   D =       0.00000006 cm^2/s
     atom    14   D =       0.00000005 cm^2/s
     atom    15   D =       0.00000006 cm^2/s
     atom    16   D =       0.00000006 cm^2/s
     atom    17   D =       0.00000007 cm^2/s
     atom    18   D =       0.00000006 cm^2/s
     atom    19   D =       0.00000001 cm^2/s
     atom    20   D =       0.00000007 cm^2/s
     atom    21   D =       0.00000015 cm^2/s
     atom    22   D =       0.00000023 cm^2/s
     atom    23   D =       0.01782557 cm^2/s

     < D > =       0.00077635 cm^2/s

     Writing all to output data dir outdir/pwscf.save/

     General routines

     Parallel routines

   This run was terminated on:   0:11:57  15Jun2023

   JOB DONE.