     Program PWSCF v.7.2 starts on 16Jun2023 at 19:50:32

     Reading input from md_data/md_Hf5Nb2Ta10Zr5H_20steps_50eV_incident45_polar60.in
Warning: card &CELL ignored
Warning: card / ignored

     Current dimensions of program PWSCF are:
     Max number of different atomic species (ntypx) = 10
     Max number of k-points (npk) =  40000
     Max angular momentum in pseudopotentials (lmaxx) =  4

     File outdir/pwscf.md deleted, as requested

     gamma-point specific algorithms are used

     R & G space division:  proc/nbgrp/npool/nimage =      42
     Subspace diagonalization in iterative solution of the eigenvalue problem:
     one sub-group per band group will be used

     Using Slab Decomposition

     bravais-lattice index     =            0
     lattice parameter (alat)  =      17.6500  a.u.
     unit-cell volume          =    5552.8853 (a.u.)^3
     number of atoms/cell      =           23
     number of atomic types    =            5
     number of electrons       =       277.00
     number of Kohn-Sham states=          167
     kinetic-energy cutoff     =     120.0000  Ry
     charge density cutoff     =     480.0000  Ry
     scf convergence threshold =      1.0E-03
     mixing beta               =       0.7000
     number of iterations used =            8  TF        mixing
     energy convergence thresh.=      0.0E+00
     force convergence thresh. =      0.0E+00
     Exchange-correlation=  SLA  PW   PBX  PBC
                           (   1   4   3   4   0   0   0)
     nstep                     =           20

     celldm(1)=  17.650041  celldm(2)=   0.000000  celldm(3)=   0.000000
     celldm(4)=   0.000000  celldm(5)=   0.000000  celldm(6)=   0.000000

     crystal axes: (cart. coord. in units of alat)
               a(1) = (   1.000000   0.000000   0.000000 )
               a(2) = (   0.000000   0.929336   0.000000 )
               a(3) = (   0.000000   0.000000   1.086698 )

     reciprocal axes: (cart. coord. in units 2 pi/alat)
               b(1) = (  1.000000  0.000000  0.000000 )
               b(2) = (  0.000000  1.076037  0.000000 )
               b(3) = (  0.000000  0.000000  0.920219 )

     PseudoPot. # 1 for Hf read from file:
     q-e/pseudo/hf_pbe_v1.uspp.F.UPF
     MD5 check sum: 8ee9378dfe14276e333edf04c5e4aa26
     Pseudo is Ultrasoft + core correction, Zval = 12.0
     Generated by new atomic code, or converted to UPF format
     Using radial grid of  921 points,  8 beta functions with:
                l(1) =   0
                l(2) =   0
                l(3) =   0
                l(4) =   1
                l(5) =   1
                l(6) =   2
                l(7) =   2
                l(8) =   3
     Q(r) pseudized with  6 coefficients,  rinner =    1.200   1.200   1.200
                                                       1.200   1.200   1.200
                                                       1.200

     PseudoPot. # 2 for Nb read from file:
     q-e/pseudo/nb_pbe_v1.uspp.F.UPF
     MD5 check sum: 573aab8a2fa660278ed4a62cd769473f
     Pseudo is Ultrasoft + core correction, Zval = 13.0
     Generated by new atomic code, or converted to UPF format
     Using radial grid of  887 points,  6 beta functions with:
                l(1) =   0
                l(2) =   0
                l(3) =   1
                l(4) =   1
                l(5) =   2
                l(6) =   2
     Q(r) pseudized with  6 coefficients,  rinner =    1.000   1.000   1.000
                                                       1.000   1.000

     PseudoPot. # 3 for Ta read from file:
     q-e/pseudo/ta_pbe_v1.uspp.F.UPF
     MD5 check sum: f8bbe9446314a3b8ea5d9f3e3836c939
     Pseudo is Ultrasoft + core correction, Zval = 13.0
     Generated by new atomic code, or converted to UPF format
     Using radial grid of  921 points,  7 beta functions with:
                l(1) =   0
                l(2) =   0
                l(3) =   1
                l(4) =   1
                l(5) =   2
                l(6) =   2
                l(7) =   3
     Q(r) pseudized with  6 coefficients,  rinner =    1.300   1.300   1.300
                                                       1.300   1.300   1.300
                                                       1.300

     PseudoPot. # 4 for Zr read from file:
     q-e/pseudo/zr_pbe_v1.uspp.F.UPF
     MD5 check sum: 5db81b1e868ab7776c4564c113de050b
     Pseudo is Ultrasoft + core correction, Zval = 12.0
     Generated by new atomic code, or converted to UPF format
     Using radial grid of  887 points,  6 beta functions with:
                l(1) =   0
                l(2) =   0
                l(3) =   1
                l(4) =   1
                l(5) =   2
                l(6) =   2
     Q(r) pseudized with  6 coefficients,  rinner =    1.200   1.200   1.200
                                                       1.200   1.200

     PseudoPot. # 5 for H  read from file:
     q-e/pseudo/h_pbe_v1.4.uspp.F.UPF
     MD5 check sum: 761ae9a214b05c3daf00ab9f6b793d6f
     Pseudo is Ultrasoft, Zval =  1.0
     Generated by new atomic code, or converted to UPF format
     Using radial grid of  615 points,  2 beta functions with:
                l(1) =   0
                l(2) =   0
     Q(r) pseudized with  8 coefficients,  rinner =    0.700

     atomic species   valence    mass     pseudopotential
        Hf            12.00   178.49000     Hf( 1.00)
        Nb            13.00    92.90637     Nb( 1.00)
        Ta            13.00   180.94788     Ta( 1.00)
        Zr            12.00    91.22400     Zr( 1.00)
        H              1.00     2.01400     H ( 1.00)

     Starting magnetic structure
     atomic species   magnetization
        Hf           0.000
        Nb           0.000
        Ta           0.000
        Zr           0.000
        H            0.000

     No symmetry found

   Cartesian axes

     site n.     atom                  positions (alat units)
         1           Hf  tau(   1) = (   0.2858672   0.3026898   0.7070626  )
         2           Hf  tau(   2) = (   0.1341532   0.1377178   0.5415917  )
         3           Hf  tau(   3) = (   0.1344204   0.7911996   0.5447610  )
         4           Hf  tau(   4) = (   0.4375813   0.1377178   0.5415917  )
         5           Hf  tau(   5) = (   0.4373140   0.7911996   0.5447610  )
         6           Nb  tau(   6) = (   0.2858672   0.2994572   0.3764008  )
         7           Nb  tau(   7) = (   0.2858672   0.6291626   0.7103852  )
         8           Ta  tau(   8) = (   0.1294832   0.4647675   0.5429471  )
         9           Ta  tau(   9) = (   0.4422513   0.4647675   0.5429471  )
        10           Ta  tau(  10) = (   0.1399628   0.1406984   0.2204260  )
        11           Ta  tau(  11) = (   0.1394848   0.1400847   0.8666573  )
        12           Ta  tau(  12) = (   0.1396156   0.7897030   0.2190832  )
        13           Ta  tau(  13) = (   0.1400119   0.7885528   0.8657390  )
        14           Ta  tau(  14) = (   0.4317717   0.1406984   0.2204260  )
        15           Ta  tau(  15) = (   0.4322496   0.1400847   0.8666573  )
        16           Ta  tau(  16) = (   0.4321189   0.7897030   0.2190832  )
        17           Ta  tau(  17) = (   0.4317226   0.7885528   0.8657390  )
        18           Zr  tau(  18) = (   0.2858672   0.6280820   0.3776642  )
        19           Zr  tau(  19) = (   0.1331729   0.4627493   0.2141328  )
        20           Zr  tau(  20) = (   0.1328036   0.4661802   0.8725649  )
        21           Zr  tau(  21) = (   0.4385616   0.4627493   0.2141328  )
        22           Zr  tau(  22) = (   0.4389309   0.4661802   0.8725649  )
        23           H   tau(  23) = (   0.5936660   0.5403755   0.6741890  )

     number of k points=     1  Gaussian smearing, width (Ry)=  0.0220
                       cart. coord. in units 2pi/alat
        k(    1) = (   0.0000000   0.0000000   0.0000000), wk =   1.0000000

     Check: negative core charge=   -0.000002
     Generating pointlists ...
     new r_m :   0.1117 (alat units)  1.9717 (a.u.) for type    1
     new r_m :   0.1098 (alat units)  1.9374 (a.u.) for type    2
     new r_m :   0.0883 (alat units)  1.5593 (a.u.) for type    3
     new r_m :   0.1082 (alat units)  1.9097 (a.u.) for type    4
     new r_m :   0.0883 (alat units)  1.5593 (a.u.) for type    5

     Initial potential from superposition of free atoms

     starting charge     266.9726, renormalised to     277.0000

     negative rho (up, down):  9.217E-01 9.217E-01
     Starting wfcs are  287 randomized atomic wfcs

     Self-consistent Calculation

     iteration #  1     ecut=   120.00 Ry     beta= 0.70
     Davidson diagonalization with overlap
     ethr =  1.00E-02,  avg # of iterations =  2.0

     negative rho (up, down):  9.966E-01 9.962E-01

     total energy              =   -2930.58857307 Ry
     estimated scf accuracy    <     276.75348115 Ry

     total magnetization       =    -0.00 Bohr mag/cell
     absolute magnetization    =     0.09 Bohr mag/cell

[...]

     Magnetic moment per site  (integrated on atomic sphere of radius R)
     atom   1 (R=0.112)  charge=  9.4634  magn= -0.0002
     atom   2 (R=0.112)  charge=  9.0589  magn=  0.0002
     atom   3 (R=0.112)  charge=  9.0576  magn=  0.0000
     atom   4 (R=0.112)  charge=  9.0586  magn=  0.0001
     atom   5 (R=0.112)  charge=  9.0618  magn=  0.0001
     atom   6 (R=0.110)  charge= 10.3494  magn= -0.0002
     atom   7 (R=0.110)  charge= 10.3534  magn= -0.0000
     atom   8 (R=0.088)  charge=  8.1279  magn= -0.0001
     atom   9 (R=0.088)  charge=  8.1250  magn=  0.0004
     atom  10 (R=0.088)  charge=  8.1063  magn= -0.0003
     atom  11 (R=0.088)  charge=  8.1046  magn=  0.0005
     atom  12 (R=0.088)  charge=  8.1070  magn= -0.0022
     atom  13 (R=0.088)  charge=  8.1054  magn= -0.0002
     atom  14 (R=0.088)  charge=  8.1066  magn= -0.0009
     atom  15 (R=0.088)  charge=  8.1038  magn=  0.0002
     atom  16 (R=0.088)  charge=  8.1055  magn= -0.0013
     atom  17 (R=0.088)  charge=  8.1122  magn=  0.0000
     atom  18 (R=0.108)  charge=  9.2256  magn=  0.0003
     atom  19 (R=0.108)  charge=  8.8224  magn= -0.0020
     atom  20 (R=0.108)  charge=  8.8200  magn=  0.0006
     atom  21 (R=0.108)  charge=  8.8184  magn= -0.0013
     atom  22 (R=0.108)  charge=  8.8154  magn=  0.0003
     atom  23 (R=0.088)  charge=  0.9992  magn= -0.0001

     End of self-consistent calculation

 ------ SPIN UP ------------

          k = 0.0000 0.0000 0.0000 ( 61588 PWs)   bands (ev):

   -60.7823 -60.7741 -60.7352 -60.7296 -60.6972 -60.6958 -60.6535 -60.6493
   -60.5107 -60.4540 -54.3909 -54.3423 -54.2606 -54.2141 -52.6909 -46.2875
   -46.2517 -41.6419 -41.6111 -41.5570 -41.5094 -39.7927 -27.7845 -27.7713
   -27.6947 -27.6871 -27.5964 -27.5827 -27.4643 -27.4515 -27.3877 -27.3340
   -27.3103 -27.2669 -27.2630 -27.2400 -27.2251 -27.1716 -27.1612 -27.1455
   -27.0998 -27.0820 -27.0394 -26.9710 -26.9593 -26.9503 -26.9478 -26.9297
   -26.8899 -26.8736 -26.8527 -26.8474 -24.1733 -23.9645 -23.6594 -23.5749
   -23.3170 -23.1934 -23.1698 -23.0662 -22.9334 -22.8692 -22.8444 -22.6254
   -22.5145 -22.4571 -22.3995 -22.3721 -22.2760 -22.2398 -21.7547 -21.6903
[...]

     convergence has been achieved in   4 iterations

     negative rho (up, down):  9.088E-01 9.088E-01

     Forces acting on atoms (cartesian axes, Ry/au):

     atom    1 type  1   force =    -0.00260248   -0.02108630    0.00048682
     atom    2 type  1   force =    -0.11926087   -0.01209549   -0.00907907
     atom    3 type  1   force =    -0.11682227    0.00898019   -0.00440956
     atom    4 type  1   force =     0.11675191   -0.01404355   -0.01404402
     atom    5 type  1   force =     0.11958503    0.01231380   -0.00530184
     atom    6 type  2   force =    -0.01533471   -0.02539616    0.00016549
     atom    7 type  2   force =    -0.02437041    0.01055981   -0.00799000
     atom    8 type  3   force =    -0.11825612    0.00695006   -0.00110478
     atom    9 type  3   force =     0.04125214   -0.05705353   -0.08935697
     atom   10 type  3   force =    -0.02111179   -0.03080691   -0.05251450
     atom   11 type  3   force =    -0.02398386   -0.03241354    0.05933021
     atom   12 type  3   force =    -0.02086078    0.03597614   -0.05103610
     atom   13 type  3   force =    -0.01391545    0.02821481    0.06442266
     atom   14 type  3   force =     0.02456429   -0.02861640   -0.05181465
     atom   15 type  3   force =     0.02081163   -0.03679049    0.05812716
     atom   16 type  3   force =     0.02174265    0.03503002   -0.04592715
     atom   17 type  3   force =     0.01166682    0.03975289    0.06223466
     atom   18 type  4   force =    -0.00464899    0.02987125   -0.01208851
     atom   19 type  4   force =    -0.12958845   -0.00422560   -0.10970431
     atom   20 type  4   force =    -0.13038152    0.00557010    0.11216599
     atom   21 type  4   force =     0.12778616   -0.00679834   -0.11472069
     atom   22 type  4   force =     0.14943380    0.00578690    0.09616666
     atom   23 type  5   force =     0.10754325    0.05032034    0.11599249
     The non-local contrib.  to forces
     atom    1 type  1   force =     0.00083148   -0.01164820    0.02494061
     atom    2 type  1   force =    -0.24743177   -0.16194522    0.01111663
     atom    3 type  1   force =    -0.24277070    0.15453385   -0.02563806
     atom    4 type  1   force =     0.25023469   -0.16330527    0.02417012
     atom    5 type  1   force =     0.26258234    0.13877681   -0.00939478
     atom    6 type  2   force =     0.01310603   -0.05589899   -0.06047708
     atom    7 type  2   force =    -0.01002761    0.07181738    0.05998422
     atom    8 type  3   force =    -0.25721683    0.00315058   -0.00262379
     atom    9 type  3   force =     0.10921472   -0.04442380   -0.08954098
     atom   10 type  3   force =    -0.21236161    0.00120901   -0.20698341
     atom   11 type  3   force =    -0.21763643    0.01145254    0.19509675
     atom   12 type  3   force =    -0.20442035   -0.02056179   -0.17409287
     atom   13 type  3   force =    -0.20600678   -0.00964176    0.20289344
     atom   14 type  3   force =     0.21057238    0.00591542   -0.21808331
     atom   15 type  3   force =     0.22243024    0.00392602    0.18193833
     atom   16 type  3   force =     0.19491055   -0.01818054   -0.18476860
     atom   17 type  3   force =     0.22852412   -0.01465083    0.17871594
     atom   18 type  4   force =    -0.00389968    0.05861593   -0.06145908
     atom   19 type  4   force =     0.05909375    0.00985465    0.07644914
     atom   20 type  4   force =     0.05111727   -0.01914034   -0.06419367
     atom   21 type  4   force =    -0.05482690    0.01615489    0.07626367
     atom   22 type  4   force =    -0.05362437   -0.01092188   -0.08033853
     atom   23 type  5   force =    -0.05564469   -0.02845029   -0.03885881
     The ionic contribution  to forces
     atom    1 type  1   force =    -0.34995605   -4.82817403   14.16703002
     atom    2 type  1   force =   -39.72241253   -6.17496794    0.74670394
     atom    3 type  1   force =   -39.70326610    6.19137675   -0.76154762
     atom    4 type  1   force =    39.55467892   -6.35270227    0.70824751
     atom    5 type  1   force =    39.37374073    6.55559139   -0.91706983
     atom    6 type  2   force =    -0.31883802   -3.79907145  -14.20549740
     atom    7 type  2   force =    -0.61488100    3.79461648   14.08226661
     atom    8 type  3   force =   -52.35295446    0.05067262   -0.11719033
     atom    9 type  3   force =    50.07854017   -0.69186190   -1.62422509
     atom   10 type  3   force =   -36.05948680   -2.09760523  -23.05531275
     atom   11 type  3   force =   -35.14436338   -0.85864724   22.08216809
     atom   12 type  3   force =   -35.24710970    0.81375858  -22.11410750
     atom   13 type  3   force =   -36.05975914    2.22758925   23.07802540
     atom   14 type  3   force =    35.97773514   -2.14086539  -23.11129847
     atom   15 type  3   force =    34.99910820   -0.94040889   22.17015067
     atom   16 type  3   force =    35.15286612    0.86494974  -22.17877287
     atom   17 type  3   force =    35.80902015    2.44543763   23.27052533
     atom   18 type  4   force =    -0.28729590    4.53911663  -14.13060819
     atom   19 type  4   force =   -35.90444529    0.94506620  -25.50287192
     atom   20 type  4   force =   -35.91143048   -0.97830525   25.52084035
     atom   21 type  4   force =    35.78008827    0.93968566  -25.69805272
     atom   22 type  4   force =    35.35843676   -1.15682487   26.18197619
     atom   23 type  5   force =     5.59198436    0.65157353    1.40862057
     The local contribution  to forces
     atom    1 type  1   force =     0.34527168    4.82333912  -14.21536876
     atom    2 type  1   force =    39.85640018    6.33253607   -0.79381557
     atom    3 type  1   force =    39.83426530   -6.34422143    0.75828701
     atom    4 type  1   force =   -39.69299508    6.50953628   -0.77606484
     atom    5 type  1   force =   -39.52267837   -6.68635105    0.89051246
     atom    6 type  2   force =     0.28927986    3.82808830   14.25529922
     atom    7 type  2   force =     0.59356817   -3.86369653  -14.18198245
     atom    8 type  3   force =    52.51602832   -0.04877128    0.09042551
     atom    9 type  3   force =   -50.15330729    0.67915442    1.60587803
     atom   10 type  3   force =    36.26683378    2.05178465   23.24150305
     atom   11 type  3   force =    35.35668367    0.81077483  -22.23986074
     atom   12 type  3   force =    35.44672845   -0.74109589   22.26792366
     atom   13 type  3   force =    36.26235096   -2.18395262  -23.23772068
     atom   14 type  3   force =   -36.17835367    2.09297798   23.31169483
     atom   15 type  3   force =   -35.21701639    0.90372059  -22.31315086
     atom   16 type  3   force =   -35.34075294   -0.79592253   22.35163836
     atom   17 type  3   force =   -36.04375358   -2.38480709  -23.40491894
     atom   18 type  4   force =     0.28351739   -4.56641363   14.16789231
     atom   19 type  4   force =    35.71620570   -0.96038390   25.34579298
     atom   20 type  4   force =    35.73107119    1.00161057  -25.36362249
     atom   21 type  4   force =   -35.59720575   -0.96359229   25.53444120
     atom   22 type  4   force =   -35.15076260    1.16723178  -26.02728267
     atom   23 type  5   force =    -5.42598476   -0.57292289   -1.25648682
     The core correction contribution to forces
     atom    1 type  1   force =     0.00175090    0.00058586   -0.00074247
     atom    2 type  1   force =    -0.01209295   -0.00184383    0.00011529
     atom    3 type  1   force =    -0.01269143    0.00244603   -0.00151336
     atom    4 type  1   force =     0.01290403   -0.00220914    0.00312655
     atom    5 type  1   force =     0.01383048    0.00207718    0.00043274
     atom    6 type  2   force =    -0.00057895    0.00289725    0.00273570
     atom    7 type  2   force =     0.00072375   -0.00362680   -0.00230187
     atom    8 type  3   force =    -0.03106749    0.00064207    0.00014762
     atom    9 type  3   force =     0.01320385   -0.00576780   -0.01188016
     atom   10 type  3   force =    -0.02148073    0.00935451   -0.01604772
     atom   11 type  3   force =    -0.02467614    0.00922851    0.01833193
     atom   12 type  3   force =    -0.02163896   -0.01018961   -0.01526976
     atom   13 type  3   force =    -0.02209515   -0.00983244    0.01618412
     atom   14 type  3   force =     0.02174902    0.00911779   -0.01673170
     atom   15 type  3   force =     0.02441022    0.00958158    0.01429415
     atom   16 type  3   force =     0.02182891   -0.01007711   -0.01629907
     atom   17 type  3   force =     0.02376554   -0.00892412    0.01460540
     atom   18 type  4   force =     0.00023444   -0.00302860    0.00293240
     atom   19 type  4   force =    -0.00967060   -0.00000552   -0.00968540
     atom   20 type  4   force =    -0.00931844    0.00069360    0.00903965
     atom   21 type  4   force =     0.00940874   -0.00031761   -0.00987006
     atom   22 type  4   force =     0.00978247    0.00049535    0.00949525
     atom   23 type  5   force =     0.00000000    0.00000000    0.00000000
     The Hubbard contrib.    to forces
     atom    1 type  1   force =     0.00000000    0.00000000    0.00000000
     atom    2 type  1   force =     0.00000000    0.00000000    0.00000000
     atom    3 type  1   force =     0.00000000    0.00000000    0.00000000
     atom    4 type  1   force =     0.00000000    0.00000000    0.00000000
     atom    5 type  1   force =     0.00000000    0.00000000    0.00000000
     atom    6 type  2   force =     0.00000000    0.00000000    0.00000000
     atom    7 type  2   force =     0.00000000    0.00000000    0.00000000
     atom    8 type  3   force =     0.00000000    0.00000000    0.00000000
     atom    9 type  3   force =     0.00000000    0.00000000    0.00000000
     atom   10 type  3   force =     0.00000000    0.00000000    0.00000000
     atom   11 type  3   force =     0.00000000    0.00000000    0.00000000
     atom   12 type  3   force =     0.00000000    0.00000000    0.00000000
     atom   13 type  3   force =     0.00000000    0.00000000    0.00000000
     atom   14 type  3   force =     0.00000000    0.00000000    0.00000000
     atom   15 type  3   force =     0.00000000    0.00000000    0.00000000
     atom   16 type  3   force =     0.00000000    0.00000000    0.00000000
     atom   17 type  3   force =     0.00000000    0.00000000    0.00000000
     atom   18 type  4   force =     0.00000000    0.00000000    0.00000000
     atom   19 type  4   force =     0.00000000    0.00000000    0.00000000
     atom   20 type  4   force =     0.00000000    0.00000000    0.00000000
     atom   21 type  4   force =     0.00000000    0.00000000    0.00000000
     atom   22 type  4   force =     0.00000000    0.00000000    0.00000000
     atom   23 type  5   force =     0.00000000    0.00000000    0.00000000
     The SCF correction term to forces
     atom    1 type  1   force =    -0.00033231   -0.00509722    0.02285325
     atom    2 type  1   force =     0.00644438   -0.00578274    0.02502647
     atom    3 type  1   force =     0.00780882    0.00493682    0.02422830
     atom    4 type  1   force =    -0.00790247   -0.00527131    0.02470247
     atom    5 type  1   force =    -0.00772196    0.00231132    0.02844340
     atom    6 type  2   force =     0.00186453   -0.00131942    0.00633088
     atom    7 type  2   force =     0.00641445    0.01154112    0.03226932
     atom    8 type  3   force =     0.00712251    0.00134791    0.02636205
     atom    9 type  3   force =    -0.00623115    0.00593737    0.02863705
     atom   10 type  3   force =     0.00555174    0.00454199   -0.01744783
     atom   11 type  3   force =     0.00617659   -0.00513035    0.00182001
     atom   12 type  3   force =     0.00574795   -0.00584332   -0.01726379
     atom   13 type  3   force =     0.01176284    0.00414421    0.00326622
     atom   14 type  3   force =    -0.00697040    0.00432964   -0.01917016
     atom   15 type  3   force =    -0.00795247   -0.01351796    0.00312071
     atom   16 type  3   force =    -0.00694183   -0.00564771   -0.01949913
     atom   17 type  3   force =    -0.00572124    0.00278913    0.00153276
     atom   18 type  4   force =     0.00296293    0.00167275    0.00737988
     atom   19 type  4   force =     0.00939615    0.00133480   -0.02116327
     atom   20 type  4   force =     0.00834710    0.00080335    0.00832797
     atom   21 type  4   force =    -0.00951004    0.00136284   -0.01927695
     atom   22 type  4   force =    -0.01423029    0.00589836    0.01054226
     atom   23 type  5   force =    -0.00264350    0.00021182    0.00094338

     Total force =     0.521002     Total SCF correction =     0.100557
     SCF correction compared to forces is large: reduce conv_thr to get better values

     Computing stress (Cartesian axis) and pressure

     negative rho (up, down):  9.088E-01 9.088E-01
          total   stress  (Ry/bohr**3)                   (kbar)     P=       87.48
   0.00069514   0.00001595   0.00004489          102.26        2.35        6.60
   0.00001595   0.00068077   0.00001317            2.35      100.15        1.94
   0.00004489   0.00001317   0.00040821            6.60        1.94       60.05

     Entering Dynamics:    iteration =    20
                           time      =   0.0041 pico-seconds

ATOMIC_POSITIONS (angstrom)
Hf            2.6713156949        2.8275435390        6.6051221459
Hf            1.2528881646        1.2867405425        5.0595266644
Hf            1.2554111322        7.3905604289        5.0891847963
Hf            4.0895955633        1.2867410062        5.0595010163
Hf            4.0871294803        7.3905885338        5.0892013329
Nb            2.6713838726        2.7972974330        3.5169367236
Nb            2.6708855085        5.8772313242        6.6358442098
Ta            1.2092440269        4.3416777503        5.0722833331
Ta            4.1125176298        4.3310067861        5.0535995960
Ta            1.3082348793        1.3143786529        2.0592368031
Ta            1.3037832916        1.3086175294        8.0963086704
Ta            1.3050473301        7.3768611281        2.0466987716
Ta            1.3088125219        7.3660515483        8.0877854635
Ta            4.0342471566        1.3144609822        2.0592317766
Ta            4.0386977969        1.3086053092        8.0963056756
Ta            4.0374727007        7.3768292061        2.0467380312
Ta            4.0336846453        7.3661114437        8.0877467673
Zr            2.6712860281        5.8675007400        3.5282750641
Zr            1.2421824791        4.3226272335        1.9984885316
Zr            1.2386902724        4.3548503015        8.1533738173
Zr            4.1003144052        4.3225881925        1.9983544281
Zr            4.1040449841        4.3548761504        8.1532514894
H             5.3249006549        4.9345400917        6.1630112198

     kinetic energy (Ekin) =           4.01008841 Ry
     temperature           =       19186.14797029 K
     Ekin + Etot (const)   =       -2939.03409948 Ry
     Ions kinetic stress =           70.82 (kbar)
                                    100.39          49.95          93.36
                                     49.95          24.93          46.56
                                     93.36          46.56          87.15

     Linear momentum :   -0.0000000000   -0.0000000000   -0.0000000000

     The maximum number of steps has been reached.

     End of molecular dynamics calculation

     diffusion coefficients :
     atom     1   D =       0.00000001 cm^2/s
     atom     2   D =       0.00000001 cm^2/s
     atom     3   D =       0.00000001 cm^2/s
     atom     4   D =       0.00000003 cm^2/s
     atom     5   D =       0.00000004 cm^2/s
     atom     6   D =       0.00000002 cm^2/s
     atom     7   D =       0.00000001 cm^2/s
     atom     8   D =       0.00000001 cm^2/s
     atom     9   D =       0.00000301 cm^2/s
     atom    10   D =       0.00000001 cm^2/s
     atom    11   D =       0.00000002 cm^2/s
     atom    12   D =       0.00000001 cm^2/s
     atom    13   D =       0.00000002 cm^2/s
     atom    14   D =       0.00000001 cm^2/s
     atom    15   D =       0.00000002 cm^2/s
     atom    16   D =       0.00000001 cm^2/s
     atom    17   D =       0.00000002 cm^2/s
     atom    18   D =       0.00000002 cm^2/s
     atom    19   D =       0.00000002 cm^2/s
     atom    20   D =       0.00000007 cm^2/s
     atom    21   D =       0.00000008 cm^2/s
     atom    22   D =       0.00000013 cm^2/s
     atom    23   D =       0.00032391 cm^2/s

     < D > =       0.00001424 cm^2/s

     Writing all to output data dir outdir/pwscf.save/

     General routines

     Parallel routines

   This run was terminated on:  20:53:33  16Jun2023

   JOB DONE.