     Program PWSCF v.7.2 starts on 12Jun2023 at  0:14: 7

     Reading input from md_data/md_Hf5Nb2Ta10Zr5H_20steps_100eV_incident45_polar30.in
Warning: card &CELL ignored
Warning: card / ignored

     Current dimensions of program PWSCF are:
     Max number of different atomic species (ntypx) = 10
     Max number of k-points (npk) =  40000
     Max angular momentum in pseudopotentials (lmaxx) =  4

     File outdir/pwscf.update deleted, as requested

     File outdir/pwscf.md deleted, as requested

     gamma-point specific algorithms are used

     R & G space division:  proc/nbgrp/npool/nimage =      42
     Subspace diagonalization in iterative solution of the eigenvalue problem:
     one sub-group per band group will be used

     Using Slab Decomposition

     bravais-lattice index     =            0
     lattice parameter (alat)  =      16.1383  a.u.
     unit-cell volume          =    5077.2634 (a.u.)^3
     number of atoms/cell      =           23
     number of atomic types    =            5
     number of electrons       =       277.00
     number of Kohn-Sham states=          167
     kinetic-energy cutoff     =     120.0000  Ry
     charge density cutoff     =     480.0000  Ry
     scf convergence threshold =      1.0E-03
     mixing beta               =       0.7000
     number of iterations used =            8  TF        mixing
     energy convergence thresh.=      0.0E+00
     force convergence thresh. =      0.0E+00
     Exchange-correlation=  SLA  PW   PBX  PBC
                           (   1   4   3   4   0   0   0)
     nstep                     =           20

     celldm(1)=  16.138261  celldm(2)=   0.000000  celldm(3)=   0.000000
     celldm(4)=   0.000000  celldm(5)=   0.000000  celldm(6)=   0.000000

     crystal axes: (cart. coord. in units of alat)
               a(1) = (   1.000000   0.000000   0.000000 )
               a(2) = (   0.000000   1.016393   0.000000 )
               a(3) = (   0.000000   0.000000   1.188496 )

     reciprocal axes: (cart. coord. in units 2 pi/alat)
               b(1) = (  1.000000  0.000000  0.000000 )
               b(2) = (  0.000000  0.983871  0.000000 )
               b(3) = (  0.000000  0.000000  0.841400 )

     PseudoPot. # 1 for Hf read from file:
     q-e/pseudo/hf_pbe_v1.uspp.F.UPF
     MD5 check sum: 8ee9378dfe14276e333edf04c5e4aa26
     Pseudo is Ultrasoft + core correction, Zval = 12.0
     Generated by new atomic code, or converted to UPF format
     Using radial grid of  921 points,  8 beta functions with:
                l(1) =   0
                l(2) =   0
                l(3) =   0
                l(4) =   1
                l(5) =   1
                l(6) =   2
                l(7) =   2
                l(8) =   3
     Q(r) pseudized with  6 coefficients,  rinner =    1.200   1.200   1.200
                                                       1.200   1.200   1.200
                                                       1.200

     PseudoPot. # 2 for Nb read from file:
     q-e/pseudo/nb_pbe_v1.uspp.F.UPF
     MD5 check sum: 573aab8a2fa660278ed4a62cd769473f
     Pseudo is Ultrasoft + core correction, Zval = 13.0
     Generated by new atomic code, or converted to UPF format
     Using radial grid of  887 points,  6 beta functions with:
                l(1) =   0
                l(2) =   0
                l(3) =   1
                l(4) =   1
                l(5) =   2
                l(6) =   2
     Q(r) pseudized with  6 coefficients,  rinner =    1.000   1.000   1.000
                                                       1.000   1.000

     PseudoPot. # 3 for Ta read from file:
     q-e/pseudo/ta_pbe_v1.uspp.F.UPF
     MD5 check sum: f8bbe9446314a3b8ea5d9f3e3836c939
     Pseudo is Ultrasoft + core correction, Zval = 13.0
     Generated by new atomic code, or converted to UPF format
     Using radial grid of  921 points,  7 beta functions with:
                l(1) =   0
                l(2) =   0
                l(3) =   1
                l(4) =   1
                l(5) =   2
                l(6) =   2
                l(7) =   3
     Q(r) pseudized with  6 coefficients,  rinner =    1.300   1.300   1.300
                                                       1.300   1.300   1.300
                                                       1.300

     PseudoPot. # 4 for Zr read from file:
     q-e/pseudo/zr_pbe_v1.uspp.F.UPF
     MD5 check sum: 5db81b1e868ab7776c4564c113de050b
     Pseudo is Ultrasoft + core correction, Zval = 12.0
     Generated by new atomic code, or converted to UPF format
     Using radial grid of  887 points,  6 beta functions with:
                l(1) =   0
                l(2) =   0
                l(3) =   1
                l(4) =   1
                l(5) =   2
                l(6) =   2
     Q(r) pseudized with  6 coefficients,  rinner =    1.200   1.200   1.200
                                                       1.200   1.200

     PseudoPot. # 5 for H  read from file:
     q-e/pseudo/h_pbe_v1.4.uspp.F.UPF
     MD5 check sum: 761ae9a214b05c3daf00ab9f6b793d6f
     Pseudo is Ultrasoft, Zval =  1.0
     Generated by new atomic code, or converted to UPF format
     Using radial grid of  615 points,  2 beta functions with:
                l(1) =   0
                l(2) =   0
     Q(r) pseudized with  8 coefficients,  rinner =    0.700

     atomic species   valence    mass     pseudopotential
        Hf            12.00   178.49000     Hf( 1.00)
        Nb            13.00    92.90637     Nb( 1.00)
        Ta            13.00   180.94788     Ta( 1.00)
        Zr            12.00    91.22400     Zr( 1.00)
        H              1.00     2.01400     H ( 1.00)

     Starting magnetic structure
     atomic species   magnetization
        Hf           0.000
        Nb           0.000
        Ta           0.000
        Zr           0.000
        H            0.000

     No symmetry found

   Cartesian axes

     site n.     atom                  positions (alat units)
         1           Hf  tau(   1) = (   0.3126464   0.3310449   0.7732979  )
         2           Hf  tau(   2) = (   0.1467202   0.1506188   0.5923263  )
         3           Hf  tau(   3) = (   0.1470125   0.8653167   0.5957925  )
         4           Hf  tau(   4) = (   0.4785725   0.1506188   0.5923263  )
         5           Hf  tau(   5) = (   0.4782802   0.8653167   0.5957925  )
         6           Nb  tau(   6) = (   0.3126464   0.3275094   0.4116608  )
         7           Nb  tau(   7) = (   0.3126464   0.6881006   0.7769319  )
         8           Ta  tau(   8) = (   0.1416128   0.5083054   0.5938087  )
         9           Ta  tau(   9) = (   0.4836800   0.5083054   0.5938087  )
        10           Ta  tau(  10) = (   0.1530741   0.1538785   0.2410748  )
        11           Ta  tau(  11) = (   0.1525513   0.1532074   0.9478430  )
        12           Ta  tau(  12) = (   0.1526943   0.8636799   0.2396062  )
        13           Ta  tau(  13) = (   0.1531277   0.8624219   0.9468387  )
        14           Ta  tau(  14) = (   0.4722187   0.1538785   0.2410748  )
        15           Ta  tau(  15) = (   0.4727414   0.1532074   0.9478430  )
        16           Ta  tau(  16) = (   0.4725984   0.8636799   0.2396062  )
        17           Ta  tau(  17) = (   0.4721650   0.8624219   0.9468387  )
        18           Zr  tau(  18) = (   0.3126464   0.6869187   0.4130426  )
        19           Zr  tau(  19) = (   0.1456481   0.5060981   0.2341920  )
        20           Zr  tau(  20) = (   0.1452442   0.5098505   0.9543040  )
        21           Zr  tau(  21) = (   0.4796447   0.5060981   0.2341920  )
        22           Zr  tau(  22) = (   0.4800486   0.5098505   0.9543040  )
        23           H   tau(  23) = (   0.6161590   0.6229269   0.6601716  )

     number of k points=     1  Gaussian smearing, width (Ry)=  0.0220
                       cart. coord. in units 2pi/alat
        k(    1) = (   0.0000000   0.0000000   0.0000000), wk =   1.0000000

     Check: negative core charge=   -0.000002
     Generating pointlists ...
     new r_m :   0.1181 (alat units)  1.9052 (a.u.) for type    1
     new r_m :   0.1201 (alat units)  1.9374 (a.u.) for type    2
     new r_m :   0.0773 (alat units)  1.2471 (a.u.) for type    3
     new r_m :   0.1216 (alat units)  1.9625 (a.u.) for type    4
     new r_m :   0.0773 (alat units)  1.2471 (a.u.) for type    5

     Initial potential from superposition of free atoms

     starting charge     266.9726, renormalised to     277.0000

     negative rho (up, down):  9.226E-01 9.226E-01
     Starting wfcs are  287 randomized atomic wfcs

     Self-consistent Calculation

     iteration #  1     ecut=   120.00 Ry     beta= 0.70
     Davidson diagonalization with overlap
     ethr =  1.00E-02,  avg # of iterations =  2.0

     negative rho (up, down):  9.852E-01 9.851E-01

     total energy              =   -2931.88113744 Ry
     estimated scf accuracy    <     287.24461499 Ry

     total magnetization       =    -0.00 Bohr mag/cell
     absolute magnetization    =     0.11 Bohr mag/cell

[...]

     Magnetic moment per site  (integrated on atomic sphere of radius R)
     atom   1 (R=0.118)  charge=  9.1887    0.0000
     atom   2 (R=0.118)  charge=  8.8379   -0.0001
     atom   3 (R=0.118)  charge=  8.8376   -0.0003
     atom   4 (R=0.118)  charge=  8.8398   -0.0001
     atom   5 (R=0.118)  charge=  8.8328   -0.0003
     atom   6 (R=0.120)  charge= 10.3504   -0.0002
     atom   7 (R=0.120)  charge= 10.3516   -0.0001
     atom   8 (R=0.077)  charge=  5.9459   -0.0001
     atom   9 (R=0.077)  charge=  5.9637   -0.0000
     atom  10 (R=0.077)  charge=  5.9287   -0.0004
     atom  11 (R=0.077)  charge=  5.9284   -0.0003
     atom  12 (R=0.077)  charge=  5.9279   -0.0009
     atom  13 (R=0.077)  charge=  5.9289   -0.0003
     atom  14 (R=0.077)  charge=  5.9289   -0.0007
     atom  15 (R=0.077)  charge=  5.9288   -0.0004
     atom  16 (R=0.077)  charge=  5.9284   -0.0005
     atom  17 (R=0.077)  charge=  5.9305   -0.0004
     atom  18 (R=0.122)  charge=  9.4536    0.0002
     atom  19 (R=0.122)  charge=  8.9958   -0.0023
     atom  20 (R=0.122)  charge=  8.9941    0.0009
     atom  21 (R=0.122)  charge=  8.9948   -0.0016
     atom  22 (R=0.122)  charge=  8.9974   -0.0000
     atom  23 (R=0.077)  charge=  0.9042   -0.0000

     End of self-consistent calculation

 ------ SPIN UP ------------

          k = 0.0000 0.0000 0.0000 ( 56324 PWs)   bands (ev):

   -59.7646 -59.7612 -59.7188 -59.7186 -59.6821 -59.6741 -59.6366 -59.6362
   -59.5076 -59.1609 -53.3504 -53.3009 -53.2213 -53.1661 -51.6700 -45.2545
   -45.2370 -40.6207 -40.6043 -40.5308 -40.5036 -38.7808 -26.7653 -26.7581
   -26.6760 -26.6754 -26.5796 -26.5742 -26.4550 -26.4432 -26.3413 -26.3092
   -26.2777 -26.2472 -26.2415 -26.2094 -26.1959 -26.1522 -26.1394 -26.1257
   -26.0638 -25.9431 -25.9424 -25.9406 -25.9249 -25.8821 -25.8682 -25.8593
   -25.8409 -25.8394 -25.8274 -25.8190 -23.1362 -22.9195 -22.6292 -22.5318
   -22.2772 -22.1495 -22.1315 -22.0228 -21.8971 -21.8272 -21.7994 -21.5772
   -21.4904 -21.4369 -21.3736 -21.3349 -21.2491 -21.2049 -20.7317 -20.6609
   -20.6007 -19.1707 -18.9182 -18.8061 -18.8031 -18.6099 -18.5790 -18.5759
[...]

     convergence has been achieved in   5 iterations

     negative rho (up, down):  9.099E-01 9.099E-01

     Forces acting on atoms (cartesian axes, Ry/au):

     atom    1 type  1   force =    -0.00161245   -0.02056429    0.01200663
     atom    2 type  1   force =    -0.12062992   -0.01661400   -0.00523374
     atom    3 type  1   force =    -0.12053015    0.01295285    0.00173517
     atom    4 type  1   force =     0.12241406   -0.00866227   -0.00757772
     atom    5 type  1   force =     0.13816147   -0.01379671    0.00384133
     atom    6 type  2   force =    -0.01050935   -0.01887275    0.00224596
     atom    7 type  2   force =    -0.02440946    0.00919363   -0.01042754
     atom    8 type  3   force =    -0.11202874    0.00449719   -0.00139365
     atom    9 type  3   force =     0.14596039    0.01864859   -0.00179039
     atom   10 type  3   force =    -0.02119153   -0.02982678   -0.05884222
     atom   11 type  3   force =    -0.02321010   -0.03263566    0.05854747
     atom   12 type  3   force =    -0.01843140    0.03347179   -0.05407672
     atom   13 type  3   force =    -0.01136504    0.02752342    0.06359471
     atom   14 type  3   force =     0.02241530   -0.03006665   -0.05897406
     atom   15 type  3   force =     0.02091781   -0.03624283    0.06139967
     atom   16 type  3   force =     0.02020895    0.03792601   -0.05235671
     atom   17 type  3   force =     0.01262457    0.04108302    0.06404952
     atom   18 type  4   force =    -0.00323650    0.02349355   -0.01255229
     atom   19 type  4   force =    -0.13186542   -0.00536653   -0.11561423
     atom   20 type  4   force =    -0.13087579    0.00545627    0.11624065
     atom   21 type  4   force =     0.12878481   -0.00848507   -0.11545136
     atom   22 type  4   force =     0.13674547    0.00084784    0.11451780
     atom   23 type  5   force =    -0.01833700    0.00603939   -0.00388827
     The non-local contrib.  to forces
     atom    1 type  1   force =     0.00249330   -0.01019287    0.03178079
     atom    2 type  1   force =    -0.25260380   -0.16035667    0.01157354
     atom    3 type  1   force =    -0.24284997    0.15303709   -0.02160452
     atom    4 type  1   force =     0.24837724   -0.16541397    0.01922061
     atom    5 type  1   force =     0.23458400    0.15061979   -0.01077999
     atom    6 type  2   force =     0.00797380   -0.06400299   -0.06643424
     atom    7 type  2   force =    -0.02733453    0.07416773    0.06356420
     atom    8 type  3   force =    -0.26167125    0.00639551    0.00201121
     atom    9 type  3   force =     0.16175561   -0.05090318   -0.01758282
     atom   10 type  3   force =    -0.21696821    0.00446958   -0.20977135
     atom   11 type  3   force =    -0.21946970    0.00630721    0.20414764
     atom   12 type  3   force =    -0.21081093   -0.02514967   -0.17987358
     atom   13 type  3   force =    -0.21522665   -0.00692628    0.20707892
     atom   14 type  3   force =     0.21424752    0.00335269   -0.21995022
     atom   15 type  3   force =     0.21935327    0.00597977    0.20202738
     atom   16 type  3   force =     0.20859606   -0.02196244   -0.18629538
     atom   17 type  3   force =     0.25377987   -0.03097989    0.17387419
     atom   18 type  4   force =    -0.01007007    0.06819761   -0.06077522
     atom   19 type  4   force =     0.06488323    0.00742062    0.07072826
     atom   20 type  4   force =     0.06230533   -0.01744737   -0.06037911
     atom   21 type  4   force =    -0.06494905    0.01154862    0.06718834
     atom   22 type  4   force =    -0.06125463   -0.00948216   -0.05532910
     atom   23 type  5   force =    -0.03406878   -0.01342953   -0.01519124
     The ionic contribution  to forces
     atom    1 type  1   force =    -0.17878089   -4.71863517   14.26956992
     atom    2 type  1   force =   -35.64131427   -6.12038060    0.73556703
     atom    3 type  1   force =   -35.62234005    6.23715677   -0.78298728
     atom    4 type  1   force =    35.52801035   -6.12780715    0.70415974
     atom    5 type  1   force =    34.99979984    6.88107102   -1.03526067
     atom    6 type  2   force =    -0.11775283   -3.60383939  -14.25742497
     atom    7 type  2   force =    -0.58701924    3.59230791   14.35349914
     atom    8 type  3   force =   -47.51648089   -0.04945696   -0.15840295
     atom    9 type  3   force =    46.33271542   -0.99293443   -0.70751588
     atom   10 type  3   force =   -32.16479709   -2.06453609  -23.43395209
     atom   11 type  3   force =   -31.23627917   -0.81535648   22.46786686
     atom   12 type  3   force =   -31.35291729    0.81628589  -22.52057994
     atom   13 type  3   force =   -32.14539007    2.24544844   23.50446766
     atom   14 type  3   force =    32.11451339   -2.06773010  -23.46957740
     atom   15 type  3   force =    31.15033032   -0.82064896   22.52796002
     atom   16 type  3   force =    31.25916950    0.87126845  -22.62347971
     atom   17 type  3   force =    31.88392228    2.45179227   23.77857023
     atom   18 type  4   force =    -0.25438778    4.32235904  -14.32941229
     atom   19 type  4   force =   -32.10594900    0.91865827  -25.85729970
     atom   20 type  4   force =   -32.08048207   -1.02721798   25.90038512
     atom   21 type  4   force =    32.01355569    0.87465808  -25.97521185
     atom   22 type  4   force =    31.78744852   -1.21314855   26.26481640
     atom   23 type  5   force =     3.93442534    0.41068569    0.64424259
     The local contribution  to forces
     atom    1 type  1   force =     0.17324181    4.70652387  -14.29129833
     atom    2 type  1   force =    35.78619535    6.26436248   -0.76213885
     atom    3 type  1   force =    35.75717456   -6.37872953    0.79751627
     atom    4 type  1   force =   -35.66677514    6.28509006   -0.74343721
     atom    5 type  1   force =   -35.10030393   -7.05259377    1.04324611
     atom    6 type  2   force =     0.09949364    3.64103514   14.31140468
     atom    7 type  2   force =     0.58911822   -3.65423441  -14.42859046
     atom    8 type  3   force =    47.69675278    0.04601860    0.14672106
     atom    9 type  3   force =   -46.36473497    1.07205093    0.71946412
     atom   10 type  3   force =    32.38392403    2.01682588   23.59975035
     atom   11 type  3   force =    31.46034517    0.77116864  -22.62746055
     atom   12 type  3   force =    31.56828451   -0.74418148   22.65994346
     atom   13 type  3   force =    32.37548849   -2.20471200  -23.65881288
     atom   14 type  3   force =   -32.32804543    2.02025978   23.64586732
     atom   15 type  3   force =   -31.37605328    0.77152729  -22.68008305
     atom   16 type  3   force =   -31.47110997   -0.79660211   22.77097455
     atom   17 type  3   force =   -32.15286736   -2.37385725  -23.89713050
     atom   18 type  4   force =     0.26030424   -4.35766239   14.36250776
     atom   19 type  4   force =    31.91789207   -0.93095734   25.67811817
     atom   20 type  4   force =    31.90179764    1.04903017  -25.72877914
     atom   21 type  4   force =   -31.82806975   -0.89425934   25.79869186
     atom   22 type  4   force =   -31.60412400    1.22332249  -26.09887181
     atom   23 type  5   force =    -3.91857096   -0.39069884   -0.63443416
     The core correction contribution to forces
     atom    1 type  1   force =     0.00017621    0.00227830   -0.00068344
     atom    2 type  1   force =    -0.01101577   -0.00096602    0.00041577
     atom    3 type  1   force =    -0.01186625    0.00214821   -0.00125269
     atom    4 type  1   force =     0.01140872   -0.00195142    0.00241165
     atom    5 type  1   force =     0.00583408    0.00695876   -0.00253870
     atom    6 type  2   force =    -0.00040291    0.00303275    0.00274065
     atom    7 type  2   force =     0.00144570   -0.00376152   -0.00253555
     atom    8 type  3   force =    -0.03064516    0.00146920    0.00064265
     atom    9 type  3   force =     0.01720150   -0.00863875   -0.00344887
     atom   10 type  3   force =    -0.02277174    0.00846151   -0.01649560
     atom   11 type  3   force =    -0.02475444    0.00852965    0.01836627
     atom   12 type  3   force =    -0.02192295   -0.00978726   -0.01486828
     atom   13 type  3   force =    -0.02303107   -0.00911078    0.01584287
     atom   14 type  3   force =     0.02205689    0.00904271   -0.01643610
     atom   15 type  3   force =     0.02390022    0.00958931    0.01602357
     atom   16 type  3   force =     0.02325696   -0.01067554   -0.01496825
     atom   17 type  3   force =     0.02496534   -0.00932278    0.01265802
     atom   18 type  4   force =     0.00050010   -0.00352885    0.00278537
     atom   19 type  4   force =    -0.00995591    0.00014801   -0.00951513
     atom   20 type  4   force =    -0.00989657    0.00057651    0.00897025
     atom   21 type  4   force =     0.00994491   -0.00002732   -0.00930000
     atom   22 type  4   force =     0.01024926    0.00051395    0.00813431
     atom   23 type  5   force =     0.00000000    0.00000000    0.00000000
     The Hubbard contrib.    to forces
     atom    1 type  1   force =     0.00000000    0.00000000    0.00000000
     atom    2 type  1   force =     0.00000000    0.00000000    0.00000000
     atom    3 type  1   force =     0.00000000    0.00000000    0.00000000
     atom    4 type  1   force =     0.00000000    0.00000000    0.00000000
     atom    5 type  1   force =     0.00000000    0.00000000    0.00000000
     atom    6 type  2   force =     0.00000000    0.00000000    0.00000000
     atom    7 type  2   force =     0.00000000    0.00000000    0.00000000
     atom    8 type  3   force =     0.00000000    0.00000000    0.00000000
     atom    9 type  3   force =     0.00000000    0.00000000    0.00000000
     atom   10 type  3   force =     0.00000000    0.00000000    0.00000000
     atom   11 type  3   force =     0.00000000    0.00000000    0.00000000
     atom   12 type  3   force =     0.00000000    0.00000000    0.00000000
     atom   13 type  3   force =     0.00000000    0.00000000    0.00000000
     atom   14 type  3   force =     0.00000000    0.00000000    0.00000000
     atom   15 type  3   force =     0.00000000    0.00000000    0.00000000
     atom   16 type  3   force =     0.00000000    0.00000000    0.00000000
     atom   17 type  3   force =     0.00000000    0.00000000    0.00000000
     atom   18 type  4   force =     0.00000000    0.00000000    0.00000000
     atom   19 type  4   force =     0.00000000    0.00000000    0.00000000
     atom   20 type  4   force =     0.00000000    0.00000000    0.00000000
     atom   21 type  4   force =     0.00000000    0.00000000    0.00000000
     atom   22 type  4   force =     0.00000000    0.00000000    0.00000000
     atom   23 type  5   force =     0.00000000    0.00000000    0.00000000
     The SCF correction term to forces
     atom    1 type  1   force =     0.00000000   -0.00000000    0.00000000
     atom    2 type  1   force =    -0.00000000    0.00000000    0.00000000
     atom    3 type  1   force =    -0.00000000   -0.00000000    0.00000000
     atom    4 type  1   force =     0.00000000    0.00000000    0.00000000
     atom    5 type  1   force =    -0.00000000    0.00000000    0.00000000
     atom    6 type  2   force =     0.00000000    0.00000000    0.00000000
     atom    7 type  2   force =    -0.00000000    0.00000000    0.00000000
     atom    8 type  3   force =     0.00000000    0.00000000    0.00000000
     atom    9 type  3   force =    -0.00000000   -0.00000000    0.00000000
     atom   10 type  3   force =    -0.00055668    0.00496622    0.00092341
     atom   11 type  3   force =    -0.00303011   -0.00327080   -0.00507581
     atom   12 type  3   force =    -0.00104290   -0.00368180    0.00059856
     atom   13 type  3   force =    -0.00318390    0.00283793   -0.00568491
     atom   14 type  3   force =    -0.00033522    0.00502216    0.00041928
     atom   15 type  3   force =     0.00340912   -0.00267637   -0.00523131
     atom   16 type  3   force =     0.00031825   -0.00408846    0.00070902
     atom   17 type  3   force =     0.00284628    0.00346456   -0.00462546
     atom   18 type  4   force =     0.00043886   -0.00585798    0.01163903
     atom   19 type  4   force =     0.00128604   -0.00062221    0.00165112
     atom   20 type  4   force =    -0.00457826    0.00052883   -0.00465951
     atom   21 type  4   force =    -0.00167514   -0.00039123    0.00247724
     atom   22 type  4   force =     0.00444816   -0.00034401   -0.00493506
     atom   23 type  5   force =    -0.00010076   -0.00050405    0.00079149

     Total force =     0.405529     Total SCF correction =     0.023225

     Computing stress (Cartesian axis) and pressure

     negative rho (up, down):  9.099E-01 9.099E-01
          total   stress  (Ry/bohr**3)                   (kbar)     P=       87.19
   0.00064560   0.00000632  -0.00000380           94.97        0.93       -0.56
   0.00000632   0.00071069  -0.00000304            0.93      104.55       -0.45
  -0.00000380  -0.00000304   0.00042187           -0.56       -0.45       62.06

     Entering Dynamics:    iteration =    20
                           time      =   0.0041 pico-seconds

ATOMIC_POSITIONS (angstrom)
Hf            2.6699999570        2.8271230292        6.6039642186    0   0   0
Hf            1.2529906802        1.2862841814        5.0584662261    0   0   0
Hf            1.2554868986        7.3898042948        5.0880677674    0   0   0
Hf            4.0870092338        1.2862841814        5.0584662261    0   0   0
Hf            4.0845130154        7.3898042948        5.0880677674    0   0   0
Nb            2.6699999570        2.7969306055        3.5155832167    0   0   0
Nb            2.6699999570        5.8763786763        6.6349979432    0   0   0
Ta            1.2093730560        4.3409278516        5.0711258323    0   0   0
Ta            4.1306268580        4.3409278516        5.0711258323    0   0   0
Ta            1.3069451021        1.3137913180        2.0581029434
Ta            1.3025183401        1.3080065648        8.0952192209
Ta            1.3037771891        7.3762034250        2.0455978153
Ta            1.3075454020        7.3654059303        8.0866885227
Ta            4.0329725938        1.3138265272        2.0581303778
Ta            4.0374187334        1.3079992094        8.0952512012
Ta            4.0362117289        7.3762239014        2.0456375141
Ta            4.0324379659        7.3654519533        8.0866629378
Zr            2.6701663813        5.8668311355        3.5272514557
Zr            1.2407462009        4.3219524116        1.9973743478
Zr            1.2372948836        4.3541991132        8.1523126325
Zr            4.0991542315        4.3219184563        1.9974163164
Zr            4.1026109179        4.3541840443        8.1523448635
H             5.6357876105        5.6702525213        5.8428918895

     kinetic energy (Ekin) =           4.07511277 Ry
     temperature           =       30638.54368605 K
     Ekin + Etot (const)   =       -2939.03744220 Ry
     Ions kinetic stress =           78.71 (kbar)
                                    114.63         102.00          59.05
                                    102.00          90.90          52.62
                                     59.05          52.62          30.61

     The maximum number of steps has been reached.

     End of molecular dynamics calculation

     diffusion coefficients :
     atom     1   D =       0.00000000 cm^2/s
     atom     2   D =       0.00000000 cm^2/s
     atom     3   D =       0.00000000 cm^2/s
     atom     4   D =       0.00000000 cm^2/s
     atom     5   D =       0.00000000 cm^2/s
     atom     6   D =       0.00000000 cm^2/s
     atom     7   D =       0.00000000 cm^2/s
     atom     8   D =       0.00000000 cm^2/s
     atom     9   D =       0.00000000 cm^2/s
     atom    10   D =       0.00000000 cm^2/s
     atom    11   D =       0.00000000 cm^2/s
     atom    12   D =       0.00000000 cm^2/s
     atom    13   D =       0.00000000 cm^2/s
     atom    14   D =       0.00000000 cm^2/s
     atom    15   D =       0.00000000 cm^2/s
     atom    16   D =       0.00000000 cm^2/s
     atom    17   D =       0.00000000 cm^2/s
     atom    18   D =       0.00000000 cm^2/s
     atom    19   D =       0.00000007 cm^2/s
     atom    20   D =       0.00000007 cm^2/s
     atom    21   D =       0.00000006 cm^2/s
     atom    22   D =       0.00000006 cm^2/s
     atom    23   D =       0.00124916 cm^2/s

     < D > =       0.00008925 cm^2/s

     Writing all to output data dir outdir/pwscf.save/

     General routines

     Parallel routines

   This run was terminated on:   0:59:58  12Jun2023

   JOB DONE.