     Program PWSCF v.7.2 starts on 19Jun2023 at  0:41:45

     Reading input from md_data/md_Hf5Nb2Ta10Zr5H_20steps_50eV_incident0_polar0.in
Warning: card &CELL ignored
Warning: card / ignored

     Current dimensions of program PWSCF are:
     Max number of different atomic species (ntypx) = 10
     Max number of k-points (npk) =  40000
     Max angular momentum in pseudopotentials (lmaxx) =  4

     File outdir/pwscf.md deleted, as requested

     gamma-point specific algorithms are used

     R & G space division:  proc/nbgrp/npool/nimage =      42
     Subspace diagonalization in iterative solution of the eigenvalue problem:
     one sub-group per band group will be used

     Using Slab Decomposition

     bravais-lattice index     =            0
     lattice parameter (alat)  =      17.6500  a.u.
     unit-cell volume          =    5552.8853 (a.u.)^3
     number of atoms/cell      =           23
     number of atomic types    =            5
     number of electrons       =       277.00
     number of Kohn-Sham states=          167
     kinetic-energy cutoff     =     120.0000  Ry
     charge density cutoff     =     480.0000  Ry
     scf convergence threshold =      1.0E-03
     mixing beta               =       0.7000
     number of iterations used =            8  TF        mixing
     energy convergence thresh.=      0.0E+00
     force convergence thresh. =      0.0E+00
     Exchange-correlation=  SLA  PW   PBX  PBC
                           (   1   4   3   4   0   0   0)
     nstep                     =           20

     celldm(1)=  17.650041  celldm(2)=   0.000000  celldm(3)=   0.000000
     celldm(4)=   0.000000  celldm(5)=   0.000000  celldm(6)=   0.000000

     crystal axes: (cart. coord. in units of alat)
               a(1) = (   1.000000   0.000000   0.000000 )
               a(2) = (   0.000000   0.929336   0.000000 )
               a(3) = (   0.000000   0.000000   1.086698 )

     reciprocal axes: (cart. coord. in units 2 pi/alat)
               b(1) = (  1.000000  0.000000  0.000000 )
               b(2) = (  0.000000  1.076037  0.000000 )
               b(3) = (  0.000000  0.000000  0.920219 )

     PseudoPot. # 1 for Hf read from file:
     q-e/pseudo/hf_pbe_v1.uspp.F.UPF
     MD5 check sum: 8ee9378dfe14276e333edf04c5e4aa26
     Pseudo is Ultrasoft + core correction, Zval = 12.0
     Generated by new atomic code, or converted to UPF format
     Using radial grid of  921 points,  8 beta functions with:
                l(1) =   0
                l(2) =   0
                l(3) =   0
                l(4) =   1
                l(5) =   1
                l(6) =   2
                l(7) =   2
                l(8) =   3
     Q(r) pseudized with  6 coefficients,  rinner =    1.200   1.200   1.200
                                                       1.200   1.200   1.200
                                                       1.200

     PseudoPot. # 2 for Nb read from file:
     q-e/pseudo/nb_pbe_v1.uspp.F.UPF
     MD5 check sum: 573aab8a2fa660278ed4a62cd769473f
     Pseudo is Ultrasoft + core correction, Zval = 13.0
     Generated by new atomic code, or converted to UPF format
     Using radial grid of  887 points,  6 beta functions with:
                l(1) =   0
                l(2) =   0
                l(3) =   1
                l(4) =   1
                l(5) =   2
                l(6) =   2
     Q(r) pseudized with  6 coefficients,  rinner =    1.000   1.000   1.000
                                                       1.000   1.000

     PseudoPot. # 3 for Ta read from file:
     q-e/pseudo/ta_pbe_v1.uspp.F.UPF
     MD5 check sum: f8bbe9446314a3b8ea5d9f3e3836c939
     Pseudo is Ultrasoft + core correction, Zval = 13.0
     Generated by new atomic code, or converted to UPF format
     Using radial grid of  921 points,  7 beta functions with:
                l(1) =   0
                l(2) =   0
                l(3) =   1
                l(4) =   1
                l(5) =   2
                l(6) =   2
                l(7) =   3
     Q(r) pseudized with  6 coefficients,  rinner =    1.300   1.300   1.300
                                                       1.300   1.300   1.300
                                                       1.300

     PseudoPot. # 4 for Zr read from file:
     q-e/pseudo/zr_pbe_v1.uspp.F.UPF
     MD5 check sum: 5db81b1e868ab7776c4564c113de050b
     Pseudo is Ultrasoft + core correction, Zval = 12.0
     Generated by new atomic code, or converted to UPF format
     Using radial grid of  887 points,  6 beta functions with:
                l(1) =   0
                l(2) =   0
                l(3) =   1
                l(4) =   1
                l(5) =   2
                l(6) =   2
     Q(r) pseudized with  6 coefficients,  rinner =    1.200   1.200   1.200
                                                       1.200   1.200

     PseudoPot. # 5 for H  read from file:
     q-e/pseudo/h_pbe_v1.4.uspp.F.UPF
     MD5 check sum: 761ae9a214b05c3daf00ab9f6b793d6f
     Pseudo is Ultrasoft, Zval =  1.0
     Generated by new atomic code, or converted to UPF format
     Using radial grid of  615 points,  2 beta functions with:
                l(1) =   0
                l(2) =   0
     Q(r) pseudized with  8 coefficients,  rinner =    0.700

     atomic species   valence    mass     pseudopotential
        Hf            12.00   178.49000     Hf( 1.00)
        Nb            13.00    92.90637     Nb( 1.00)
        Ta            13.00   180.94788     Ta( 1.00)
        Zr            12.00    91.22400     Zr( 1.00)
        H              1.00     2.01400     H ( 1.00)

     Starting magnetic structure
     atomic species   magnetization
        Hf           0.000
        Nb           0.000
        Ta           0.000
        Zr           0.000
        H            0.000

     No symmetry found

   Cartesian axes

     site n.     atom                  positions (alat units)
         1           Hf  tau(   1) = (   0.2858672   0.3026898   0.7070626  )
         2           Hf  tau(   2) = (   0.1341532   0.1377178   0.5415917  )
         3           Hf  tau(   3) = (   0.1344204   0.7911996   0.5447610  )
         4           Hf  tau(   4) = (   0.4375813   0.1377178   0.5415917  )
         5           Hf  tau(   5) = (   0.4373140   0.7911996   0.5447610  )
         6           Nb  tau(   6) = (   0.2858672   0.2994572   0.3764008  )
         7           Nb  tau(   7) = (   0.2858672   0.6291626   0.7103852  )
         8           Ta  tau(   8) = (   0.1294832   0.4647675   0.5429471  )
         9           Ta  tau(   9) = (   0.4422513   0.4647675   0.5429471  )
        10           Ta  tau(  10) = (   0.1399628   0.1406984   0.2204260  )
        11           Ta  tau(  11) = (   0.1394848   0.1400847   0.8666573  )
        12           Ta  tau(  12) = (   0.1396156   0.7897030   0.2190832  )
        13           Ta  tau(  13) = (   0.1400119   0.7885528   0.8657390  )
        14           Ta  tau(  14) = (   0.4317717   0.1406984   0.2204260  )
        15           Ta  tau(  15) = (   0.4322496   0.1400847   0.8666573  )
        16           Ta  tau(  16) = (   0.4321189   0.7897030   0.2190832  )
        17           Ta  tau(  17) = (   0.4317226   0.7885528   0.8657390  )
        18           Zr  tau(  18) = (   0.2858672   0.6280820   0.3776642  )
        19           Zr  tau(  19) = (   0.1331729   0.4627493   0.2141328  )
        20           Zr  tau(  20) = (   0.1328036   0.4661802   0.8725649  )
        21           Zr  tau(  21) = (   0.4385616   0.4627493   0.2141328  )
        22           Zr  tau(  22) = (   0.4389309   0.4661802   0.8725649  )
        23           H   tau(  23) = (   0.6563841   0.4646681   0.5430600  )

     number of k points=     1  Gaussian smearing, width (Ry)=  0.0220
                       cart. coord. in units 2pi/alat
        k(    1) = (   0.0000000   0.0000000   0.0000000), wk =   1.0000000

     Check: negative core charge=   -0.000002
     Generating pointlists ...
     new r_m :   0.1117 (alat units)  1.9717 (a.u.) for type    1
     new r_m :   0.1098 (alat units)  1.9374 (a.u.) for type    2
     new r_m :   0.0883 (alat units)  1.5590 (a.u.) for type    3
     new r_m :   0.1112 (alat units)  1.9625 (a.u.) for type    4
     new r_m :   0.0883 (alat units)  1.5590 (a.u.) for type    5

     Initial potential from superposition of free atoms

     starting charge     266.9726, renormalised to     277.0000

     negative rho (up, down):  9.217E-01 9.217E-01
     Starting wfcs are  287 randomized atomic wfcs

     Self-consistent Calculation

     iteration #  1     ecut=   120.00 Ry     beta= 0.70
     Davidson diagonalization with overlap
     ethr =  1.00E-02,  avg # of iterations =  2.0

     negative rho (up, down):  9.979E-01 9.976E-01

     total energy              =   -2930.51843033 Ry
     estimated scf accuracy    <     277.34127673 Ry

     total magnetization       =    -0.00 Bohr mag/cell
     absolute magnetization    =     0.09 Bohr mag/cell

[...]

     Magnetic moment per site  (integrated on atomic sphere of radius R)
     atom   1 (R=0.112)  charge=  9.4616    0.0001
     atom   2 (R=0.112)  charge=  9.0591    0.0002
     atom   3 (R=0.112)  charge=  9.0583   -0.0001
     atom   4 (R=0.112)  charge=  9.0550   -0.0001
     atom   5 (R=0.112)  charge=  9.0545   -0.0003
     atom   6 (R=0.110)  charge= 10.3472   -0.0006
     atom   7 (R=0.110)  charge= 10.3481    0.0001
     atom   8 (R=0.088)  charge=  8.1256   -0.0002
     atom   9 (R=0.088)  charge=  8.1090   -0.0006
     atom  10 (R=0.088)  charge=  8.1059    0.0001
     atom  11 (R=0.088)  charge=  8.1031   -0.0001
     atom  12 (R=0.088)  charge=  8.1072    0.0006
     atom  13 (R=0.088)  charge=  8.1053   -0.0006
     atom  14 (R=0.088)  charge=  8.1065    0.0000
     atom  15 (R=0.088)  charge=  8.1035   -0.0004
     atom  16 (R=0.088)  charge=  8.1084    0.0004
     atom  17 (R=0.088)  charge=  8.1061   -0.0013
     atom  18 (R=0.111)  charge=  9.4528   -0.0002
     atom  19 (R=0.111)  charge=  9.0050    0.0036
     atom  20 (R=0.111)  charge=  8.9983   -0.0010
     atom  21 (R=0.111)  charge=  9.0030    0.0043
     atom  22 (R=0.111)  charge=  8.9956   -0.0013
     atom  23 (R=0.088)  charge=  0.9675    0.0000

     End of self-consistent calculation

 ------ SPIN UP ------------

          k = 0.0000 0.0000 0.0000 ( 61588 PWs)   bands (ev):

   -60.8075 -60.8018 -60.7626 -60.7567 -60.7307 -60.7190 -60.6868 -60.6752
   -60.5273 -60.3901 -54.4370 -54.3763 -54.3131 -54.2527 -52.7150 -46.2842
   -46.2765 -41.6929 -41.6641 -41.5843 -41.5713 -39.8135 -27.8096 -27.8015
   -27.7261 -27.7132 -27.6192 -27.6145 -27.4935 -27.4855 -27.3778 -27.3589
   -27.3062 -27.2939 -27.2852 -27.2611 -27.2496 -27.1967 -27.1864 -27.1561
   -27.1094 -27.0839 -27.0107 -26.9864 -26.9787 -26.9722 -26.9629 -26.9116
   -26.9095 -26.8867 -26.8784 -26.8598 -24.2160 -24.0044 -23.6973 -23.6153
   -23.3570 -23.2195 -23.1931 -23.0942 -22.9731 -22.8997 -22.8869 -22.6675
   -22.5227 -22.4749 -22.4255 -22.3761 -22.3158 -22.2614 -21.7822 -21.7160
   -21.6440 -20.2521 -19.9695 -19.9010 -19.8718 -19.6621 -19.6386 -19.6260
[...]

     convergence has been achieved in   4 iterations

     negative rho (up, down):  9.093E-01 9.093E-01

     Forces acting on atoms (cartesian axes, Ry/au):

     atom    1 type  1   force =    -0.01105157   -0.02951169    0.01879891
     atom    2 type  1   force =    -0.11591638   -0.01464683    0.00486886
     atom    3 type  1   force =    -0.11498685    0.01185069    0.00914066
     atom    4 type  1   force =     0.11672671   -0.01278531    0.00371751
     atom    5 type  1   force =     0.11622710    0.01007655    0.01097736
     atom    6 type  2   force =    -0.01139195   -0.01771352    0.00280335
     atom    7 type  2   force =    -0.01171251    0.01637339   -0.00504392
     atom    8 type  3   force =    -0.13436806    0.00378949   -0.00162740
     atom    9 type  3   force =     0.02077231    0.00510799   -0.00412551
     atom   10 type  3   force =    -0.02193487   -0.02942105   -0.06339753
     atom   11 type  3   force =    -0.01984598   -0.03642727    0.05453694
     atom   12 type  3   force =    -0.01764652    0.03456401   -0.05835648
     atom   13 type  3   force =    -0.01822351    0.02995735    0.05842294
     atom   14 type  3   force =     0.02260873   -0.03037886   -0.06194028
     atom   15 type  3   force =     0.01965738   -0.03558527    0.05195093
     atom   16 type  3   force =     0.01750286    0.03400355   -0.05585475
     atom   17 type  3   force =     0.01894819    0.03110101    0.05677213
     atom   18 type  4   force =    -0.01175813    0.02697771   -0.01702166
     atom   19 type  4   force =    -0.12675807   -0.00378351   -0.11566468
     atom   20 type  4   force =    -0.13184512    0.00565849    0.11337779
     atom   21 type  4   force =     0.12666098   -0.00526886   -0.11695882
     atom   22 type  4   force =     0.13190942    0.00701160    0.11425235
     atom   23 type  5   force =     0.15642582   -0.00094967    0.00037129
     The non-local contrib.  to forces
     atom    1 type  1   force =    -0.00515347   -0.01823312    0.03185699
     atom    2 type  1   force =    -0.24433542   -0.16236068    0.02231002
     atom    3 type  1   force =    -0.23801920    0.15740455   -0.02247064
     atom    4 type  1   force =     0.26042838   -0.15705243    0.02132544
     atom    5 type  1   force =     0.25455382    0.15215111   -0.02162239
     atom    6 type  2   force =    -0.00999187   -0.04787445   -0.06683060
     atom    7 type  2   force =    -0.01136099    0.05861576    0.05999748
     atom    8 type  3   force =    -0.25667349    0.00098851   -0.00193594
     atom    9 type  3   force =    -0.08312350    0.00346352   -0.00483355
     atom   10 type  3   force =    -0.21014124    0.00521652   -0.21137835
     atom   11 type  3   force =    -0.21548739    0.00518114    0.19569759
     atom   12 type  3   force =    -0.19896241   -0.01938481   -0.18394655
     atom   13 type  3   force =    -0.20483267   -0.00414404    0.20874028
     atom   14 type  3   force =     0.20973329    0.00315226   -0.21222184
     atom   15 type  3   force =     0.21553329    0.00626321    0.19608792
     atom   16 type  3   force =     0.19831442   -0.01940976   -0.18509018
     atom   17 type  3   force =     0.20372951   -0.00211030    0.20986498
     atom   18 type  4   force =    -0.01090102    0.05080096   -0.06315020
     atom   19 type  4   force =     0.06521148    0.01037985    0.06835236
     atom   20 type  4   force =     0.05874849   -0.01326491   -0.06415406
     atom   21 type  4   force =    -0.06319755    0.00928211    0.07740391
     atom   22 type  4   force =    -0.05726908   -0.01197287   -0.07306267
     atom   23 type  5   force =    -0.08354210    0.00020288   -0.00025928
     The ionic contribution  to forces
     atom    1 type  1   force =    -0.28802396   -4.79305479   14.25731894
     atom    2 type  1   force =   -39.68197487   -6.19999768    0.77979090
     atom    3 type  1   force =   -39.65552449    6.18813337   -0.71230021
     atom    4 type  1   force =    39.46542459   -6.42506694    0.77768418
     atom    5 type  1   force =    39.43967430    6.41144609   -0.71156351
     atom    6 type  2   force =    -0.30215753   -3.76273096  -14.16747738
     atom    7 type  2   force =    -0.30248092    3.79760415   14.20112208
     atom    8 type  3   force =   -52.29439028    0.07145887   -0.06586824
     atom    9 type  3   force =    49.21724063    0.08299156   -0.08076366
     atom   10 type  3   force =   -36.03726888   -2.11290362  -23.08537445
     atom   11 type  3   force =   -35.11265013   -0.86607360   22.08962576
     atom   12 type  3   force =   -35.22521176    0.81763632  -22.14107403
     atom   13 type  3   force =   -36.01114084    2.20065502   23.06842151
     atom   14 type  3   force =    35.93419422   -2.17291637  -23.16300620
     atom   15 type  3   force =    35.01013293   -0.92653256   22.16763727
     atom   16 type  3   force =    35.12387735    0.87607784  -22.21728167
     atom   17 type  3   force =    35.90773969    2.26085563   23.14610908
     atom   18 type  4   force =    -0.28308553    4.55309587  -14.10962632
     atom   19 type  4   force =   -35.86658952    0.95351272  -25.54316402
     atom   20 type  4   force =   -35.84899907   -0.95140880   25.51994911
     atom   21 type  4   force =    35.67018152    0.95275192  -25.78843427
     atom   22 type  4   force =    35.65156845   -0.94964992   25.76727791
     atom   23 type  5   force =     5.48946409   -0.00588412    0.01099724
     The local contribution  to forces
     atom    1 type  1   force =     0.28057090    4.78297640  -14.25924677
     atom    2 type  1   force =    39.82682109    6.35258729   -0.77502081
     atom    3 type  1   force =    39.79523516   -6.34060557    0.76743491
     atom    4 type  1   force =   -39.62533414    6.57669282   -0.77309221
     atom    5 type  1   force =   -39.59391352   -6.56364869    0.76989381
     atom    6 type  2   force =     0.30109124    3.80334347   14.25066556
     atom    7 type  2   force =     0.30339696   -3.83891081  -14.25206493
     atom    8 type  3   force =    52.45712029   -0.06785498    0.08778989
     atom    9 type  3   force =   -49.12080023   -0.07967444    0.10322207
     atom   10 type  3   force =    36.25080682    2.07493136   23.23663561
     atom   11 type  3   force =    35.33412371    0.81218976  -22.24706228
     atom   12 type  3   force =    35.43133134   -0.76301133   22.26930237
     atom   13 type  3   force =    36.22307057   -2.15573499  -23.23490178
     atom   14 type  3   force =   -36.15078418    2.13949458   23.31789390
     atom   15 type  3   force =   -35.23403059    0.87109737  -22.32845033
     atom   16 type  3   force =   -35.33439696   -0.82294484   22.34940416
     atom   17 type  3   force =   -36.11874394   -2.21809037  -23.31694820
     atom   18 type  4   force =     0.28146291   -4.58432648   14.16762339
     atom   19 type  4   force =    35.69170965   -0.96574564   25.35925256
     atom   20 type  4   force =    35.66898296    0.97079729  -25.35105861
     atom   21 type  4   force =   -35.49817714   -0.96652270   25.59774290
     atom   22 type  4   force =   -35.47293654    0.97038262  -25.59188971
     atom   23 type  5   force =    -5.24737231    0.00479271   -0.00732908
     The core correction contribution to forces
     atom    1 type  1   force =     0.00173422    0.00137879   -0.00140914
     atom    2 type  1   force =    -0.01225065   -0.00206624    0.00075652
     atom    3 type  1   force =    -0.01246872    0.00292462   -0.00130851
     atom    4 type  1   force =     0.01307660   -0.00260775    0.00090733
     atom    5 type  1   force =     0.01320328    0.00349760   -0.00159715
     atom    6 type  2   force =     0.00028215    0.00204551    0.00258610
     atom    7 type  2   force =     0.00033772   -0.00263141   -0.00213363
     atom    8 type  3   force =    -0.03169196    0.00040217   -0.00054650
     atom    9 type  3   force =    -0.00096354    0.00040242   -0.00069992
     atom   10 type  3   force =    -0.02207490    0.00949696   -0.01662565
     atom   11 type  3   force =    -0.02363503    0.00954482    0.01710430
     atom   12 type  3   force =    -0.02213158   -0.00950955   -0.01615785
     atom   13 type  3   force =    -0.02186161   -0.00912712    0.01720138
     atom   14 type  3   force =     0.02285364    0.01060227   -0.01497179
     atom   15 type  3   force =     0.02384477    0.01152305    0.01514041
     atom   16 type  3   force =     0.02240800   -0.01138173   -0.01417277
     atom   17 type  3   force =     0.02231650   -0.01035725    0.01548544
     atom   18 type  4   force =     0.00046932   -0.00268020    0.00307729
     atom   19 type  4   force =    -0.00996129   -0.00000712   -0.00934275
     atom   20 type  4   force =    -0.00981039    0.00034379    0.00913934
     atom   21 type  4   force =     0.01014315    0.00005285   -0.00973410
     atom   22 type  4   force =     0.01003055    0.00027218    0.00951871
     atom   23 type  5   force =     0.00000000    0.00000000    0.00000000
     The Hubbard contrib.    to forces
     atom    1 type  1   force =     0.00000000    0.00000000    0.00000000
     atom    2 type  1   force =     0.00000000    0.00000000    0.00000000
     atom    3 type  1   force =     0.00000000    0.00000000    0.00000000
     atom    4 type  1   force =     0.00000000    0.00000000    0.00000000
     atom    5 type  1   force =     0.00000000    0.00000000    0.00000000
     atom    6 type  2   force =     0.00000000    0.00000000    0.00000000
     atom    7 type  2   force =     0.00000000    0.00000000    0.00000000
     atom    8 type  3   force =     0.00000000    0.00000000    0.00000000
     atom    9 type  3   force =     0.00000000    0.00000000    0.00000000
     atom   10 type  3   force =     0.00000000    0.00000000    0.00000000
     atom   11 type  3   force =     0.00000000    0.00000000    0.00000000
     atom   12 type  3   force =     0.00000000    0.00000000    0.00000000
     atom   13 type  3   force =     0.00000000    0.00000000    0.00000000
     atom   14 type  3   force =     0.00000000    0.00000000    0.00000000
     atom   15 type  3   force =     0.00000000    0.00000000    0.00000000
     atom   16 type  3   force =     0.00000000    0.00000000    0.00000000
     atom   17 type  3   force =     0.00000000    0.00000000    0.00000000
     atom   18 type  4   force =     0.00000000    0.00000000    0.00000000
     atom   19 type  4   force =     0.00000000    0.00000000    0.00000000
     atom   20 type  4   force =     0.00000000    0.00000000    0.00000000
     atom   21 type  4   force =     0.00000000    0.00000000    0.00000000
     atom   22 type  4   force =     0.00000000    0.00000000    0.00000000
     atom   23 type  5   force =     0.00000000    0.00000000    0.00000000
     The SCF correction term to forces
     atom    1 type  1   force =    -0.00003175   -0.00262817   -0.00850720
     atom    2 type  1   force =    -0.00402903   -0.00285873   -0.02175386
     atom    3 type  1   force =    -0.00406209    0.00394450   -0.02100098
     atom    4 type  1   force =     0.00327877   -0.00480021   -0.02189332
     atom    5 type  1   force =     0.00285673    0.00658125   -0.02291949
     atom    6 type  2   force =    -0.00046844   -0.01254629   -0.01492643
     atom    7 type  2   force =    -0.00145778    0.00164649   -0.01075101
     atom    8 type  3   force =    -0.00858512   -0.00125428   -0.01985271
     atom    9 type  3   force =     0.00856645   -0.00212427   -0.01983654
     atom   10 type  3   force =    -0.00310916   -0.00621147    0.01455921
     atom   11 type  3   force =    -0.00204963    0.00268141    0.00038547
     atom   12 type  3   force =    -0.00252460    0.00878418    0.01473349
     atom   13 type  3   force =    -0.00331145   -0.00174072    0.00017546
     atom   14 type  3   force =     0.00675927   -0.01076080    0.01157956
     atom   15 type  3   force =     0.00432448    0.00201446    0.00274957
     atom   16 type  3   force =     0.00744755    0.01161283    0.01249962
     atom   17 type  3   force =     0.00405394    0.00075411    0.00347475
     atom   18 type  4   force =     0.00044370    0.01003836   -0.01373192
     atom   19 type  4   force =    -0.00698090   -0.00197253    0.01045108
     atom   20 type  4   force =    -0.00061960   -0.00085808    0.00071592
     atom   21 type  4   force =     0.00785849   -0.00088224    0.00727666
     atom   22 type  4   force =     0.00066354   -0.00206961    0.00362202
     atom   23 type  5   force =    -0.00197636   -0.00011034   -0.00182369

     Total force =     0.509320     Total SCF correction =     0.073912
     SCF correction compared to forces is large: reduce conv_thr to get better values

     Computing stress (Cartesian axis) and pressure

     negative rho (up, down):  9.093E-01 9.093E-01
          total   stress  (Ry/bohr**3)                   (kbar)     P=       89.50
   0.00079263  -0.00000017  -0.00000032          116.60       -0.03       -0.05
  -0.00000017   0.00065690  -0.00001354           -0.03       96.63       -1.99
  -0.00000032  -0.00001354   0.00037570           -0.05       -1.99       55.27

     Entering Dynamics:    iteration =    20
                           time      =   0.0041 pico-seconds

ATOMIC_POSITIONS (angstrom)
Hf            2.6717427209        2.8267892599        6.6041103409
Hf            1.2534069778        1.2861181933        5.0584472762
Hf            1.2559116346        7.3899424689        5.0881054412
Hf            4.0901574532        1.2861286470        5.0584354700
Hf            4.0876538519        7.3899335659        5.0881166904
Nb            2.6717117797        2.7965255456        3.5157039774
Nb            2.6717088709        5.8767429124        6.6348795827
Ta            1.2097269290        4.3409720156        5.0710863569
Ta            4.1042091992        4.3410211402        5.0710034299
Ta            1.3087637521        1.3137659516        2.0581067883
Ta            1.3043245115        1.3079758851        8.0952120402
Ta            1.3055729788        7.3762390683        2.0456199958
Ta            1.3092652005        7.3654284824        8.0866739888
Ta            4.0347838838        1.3137851770        2.0581268088
Ta            4.0392264972        1.3080131089        8.0951807779
Ta            4.0379814453        7.3762086839        2.0456516509
Ta            4.0342798571        7.3654071025        8.0866531610
Zr            2.6716825415        5.8669158193        3.5270587503
Zr            1.2426697232        4.3219740310        1.9974371458
Zr            1.2391339267        4.3542552952        8.1523574984
Zr            4.1008796166        4.3219540695        1.9974275029
Zr            4.1044143410        4.3542722743        8.1523568753
H             5.8548075389        4.3349521586        5.0793698479

     kinetic energy (Ekin) =           4.02018181 Ry
     temperature           =       19234.43956809 K
     Ekin + Etot (const)   =       -2938.99735368 Ry
     Ions kinetic stress =           71.00 (kbar)
                                    212.84          -0.89           1.25
                                     -0.89           0.02          -0.00
                                      1.25          -0.00           0.14

     Linear momentum :   -0.0000000000    0.0000000000   -0.0000000000

     The maximum number of steps has been reached.

     End of molecular dynamics calculation

     diffusion coefficients :
     atom     1   D =       0.00000001 cm^2/s
     atom     2   D =       0.00000000 cm^2/s
     atom     3   D =       0.00000000 cm^2/s
     atom     4   D =       0.00000004 cm^2/s
     atom     5   D =       0.00000004 cm^2/s
     atom     6   D =       0.00000001 cm^2/s
     atom     7   D =       0.00000001 cm^2/s
     atom     8   D =       0.00000000 cm^2/s
     atom     9   D =       0.00000286 cm^2/s
     atom    10   D =       0.00000001 cm^2/s
     atom    11   D =       0.00000001 cm^2/s
     atom    12   D =       0.00000001 cm^2/s
     atom    13   D =       0.00000001 cm^2/s
     atom    14   D =       0.00000002 cm^2/s
     atom    15   D =       0.00000002 cm^2/s
     atom    16   D =       0.00000002 cm^2/s
     atom    17   D =       0.00000002 cm^2/s
     atom    18   D =       0.00000001 cm^2/s
     atom    19   D =       0.00000003 cm^2/s
     atom    20   D =       0.00000003 cm^2/s
     atom    21   D =       0.00000012 cm^2/s
     atom    22   D =       0.00000012 cm^2/s
     atom    23   D =       0.00031233 cm^2/s

     < D > =       0.00001373 cm^2/s

     Writing all to output data dir outdir/pwscf.save/

     General routines

     Parallel routines

   This run was terminated on:   1:37:44  19Jun2023

   JOB DONE.