     Program PWSCF v.7.2 starts on 15Jun2023 at 18:38:21

     Reading input from md_data/md_Hf5Nb2Ta10Zr5H_20steps_50eV_incident75_polar60.in
Warning: card &CELL ignored
Warning: card / ignored

     Current dimensions of program PWSCF are:
     Max number of different atomic species (ntypx) = 10
     Max number of k-points (npk) =  40000
     Max angular momentum in pseudopotentials (lmaxx) =  4

     File outdir/pwscf.md deleted, as requested

     gamma-point specific algorithms are used

     R & G space division:  proc/nbgrp/npool/nimage =      42
     Subspace diagonalization in iterative solution of the eigenvalue problem:
     one sub-group per band group will be used

     Using Slab Decomposition

     bravais-lattice index     =            0
     lattice parameter (alat)  =      17.6500  a.u.
     unit-cell volume          =    5552.8853 (a.u.)^3
     number of atoms/cell      =           23
     number of atomic types    =            5
     number of electrons       =       277.00
     number of Kohn-Sham states=          167
     kinetic-energy cutoff     =     120.0000  Ry
     charge density cutoff     =     480.0000  Ry
     scf convergence threshold =      1.0E-03
     mixing beta               =       0.7000
     number of iterations used =            8  TF        mixing
     energy convergence thresh.=      0.0E+00
     force convergence thresh. =      0.0E+00
     Exchange-correlation=  SLA  PW   PBX  PBC
                           (   1   4   3   4   0   0   0)
     nstep                     =           20

     celldm(1)=  17.650041  celldm(2)=   0.000000  celldm(3)=   0.000000
     celldm(4)=   0.000000  celldm(5)=   0.000000  celldm(6)=   0.000000

     crystal axes: (cart. coord. in units of alat)
               a(1) = (   1.000000   0.000000   0.000000 )
               a(2) = (   0.000000   0.929336   0.000000 )
               a(3) = (   0.000000   0.000000   1.086698 )

     reciprocal axes: (cart. coord. in units 2 pi/alat)
               b(1) = (  1.000000  0.000000  0.000000 )
               b(2) = (  0.000000  1.076037  0.000000 )
               b(3) = (  0.000000  0.000000  0.920219 )

     PseudoPot. # 1 for Hf read from file:
     q-e/pseudo/hf_pbe_v1.uspp.F.UPF
     MD5 check sum: 8ee9378dfe14276e333edf04c5e4aa26
     Pseudo is Ultrasoft + core correction, Zval = 12.0
     Generated by new atomic code, or converted to UPF format
     Using radial grid of  921 points,  8 beta functions with:
                l(1) =   0
                l(2) =   0
                l(3) =   0
                l(4) =   1
                l(5) =   1
                l(6) =   2
                l(7) =   2
                l(8) =   3
     Q(r) pseudized with  6 coefficients,  rinner =    1.200   1.200   1.200
                                                       1.200   1.200   1.200
                                                       1.200

     PseudoPot. # 2 for Nb read from file:
     q-e/pseudo/nb_pbe_v1.uspp.F.UPF
     MD5 check sum: 573aab8a2fa660278ed4a62cd769473f
     Pseudo is Ultrasoft + core correction, Zval = 13.0
     Generated by new atomic code, or converted to UPF format
     Using radial grid of  887 points,  6 beta functions with:
                l(1) =   0
                l(2) =   0
                l(3) =   1
                l(4) =   1
                l(5) =   2
                l(6) =   2
     Q(r) pseudized with  6 coefficients,  rinner =    1.000   1.000   1.000
                                                       1.000   1.000

     PseudoPot. # 3 for Ta read from file:
     q-e/pseudo/ta_pbe_v1.uspp.F.UPF
     MD5 check sum: f8bbe9446314a3b8ea5d9f3e3836c939
     Pseudo is Ultrasoft + core correction, Zval = 13.0
     Generated by new atomic code, or converted to UPF format
     Using radial grid of  921 points,  7 beta functions with:
                l(1) =   0
                l(2) =   0
                l(3) =   1
                l(4) =   1
                l(5) =   2
                l(6) =   2
                l(7) =   3
     Q(r) pseudized with  6 coefficients,  rinner =    1.300   1.300   1.300
                                                       1.300   1.300   1.300
                                                       1.300

     PseudoPot. # 4 for Zr read from file:
     q-e/pseudo/zr_pbe_v1.uspp.F.UPF
     MD5 check sum: 5db81b1e868ab7776c4564c113de050b
     Pseudo is Ultrasoft + core correction, Zval = 12.0
     Generated by new atomic code, or converted to UPF format
     Using radial grid of  887 points,  6 beta functions with:
                l(1) =   0
                l(2) =   0
                l(3) =   1
                l(4) =   1
                l(5) =   2
                l(6) =   2
     Q(r) pseudized with  6 coefficients,  rinner =    1.200   1.200   1.200
                                                       1.200   1.200

     PseudoPot. # 5 for H  read from file:
     q-e/pseudo/h_pbe_v1.4.uspp.F.UPF
     MD5 check sum: 761ae9a214b05c3daf00ab9f6b793d6f
     Pseudo is Ultrasoft, Zval =  1.0
     Generated by new atomic code, or converted to UPF format
     Using radial grid of  615 points,  2 beta functions with:
                l(1) =   0
                l(2) =   0
     Q(r) pseudized with  8 coefficients,  rinner =    0.700

     atomic species   valence    mass     pseudopotential
        Hf            12.00   178.49000     Hf( 1.00)
        Nb            13.00    92.90637     Nb( 1.00)
        Ta            13.00   180.94788     Ta( 1.00)
        Zr            12.00    91.22400     Zr( 1.00)
        H              1.00     2.01400     H ( 1.00)

     Starting magnetic structure
     atomic species   magnetization
        Hf           0.000
        Nb           0.000
        Ta           0.000
        Zr           0.000
        H            0.000

     No symmetry found

   Cartesian axes

     site n.     atom                  positions (alat units)
         1           Hf  tau(   1) = (   0.2858672   0.3026898   0.7070626  )
         2           Hf  tau(   2) = (   0.1341532   0.1377178   0.5415917  )
         3           Hf  tau(   3) = (   0.1344204   0.7911996   0.5447610  )
         4           Hf  tau(   4) = (   0.4375813   0.1377178   0.5415917  )
         5           Hf  tau(   5) = (   0.4373140   0.7911996   0.5447610  )
         6           Nb  tau(   6) = (   0.2858672   0.2994572   0.3764008  )
         7           Nb  tau(   7) = (   0.2858672   0.6291626   0.7103852  )
         8           Ta  tau(   8) = (   0.1294832   0.4647675   0.5429471  )
         9           Ta  tau(   9) = (   0.4422513   0.4647675   0.5429471  )
        10           Ta  tau(  10) = (   0.1399628   0.1406984   0.2204260  )
        11           Ta  tau(  11) = (   0.1394848   0.1400847   0.8666573  )
        12           Ta  tau(  12) = (   0.1396156   0.7897030   0.2190832  )
        13           Ta  tau(  13) = (   0.1400119   0.7885528   0.8657390  )
        14           Ta  tau(  14) = (   0.4317717   0.1406984   0.2204260  )
        15           Ta  tau(  15) = (   0.4322496   0.1400847   0.8666573  )
        16           Ta  tau(  16) = (   0.4321189   0.7897030   0.2190832  )
        17           Ta  tau(  17) = (   0.4317226   0.7885528   0.8657390  )
        18           Zr  tau(  18) = (   0.2858672   0.6280820   0.3776642  )
        19           Zr  tau(  19) = (   0.1331729   0.4627493   0.2141328  )
        20           Zr  tau(  20) = (   0.1328036   0.4661802   0.8725649  )
        21           Zr  tau(  21) = (   0.4385616   0.4627493   0.2141328  )
        22           Zr  tau(  22) = (   0.4389309   0.4661802   0.8725649  )
        23           H   tau(  23) = (   0.4976729   0.5680863   0.7221855  )

     number of k points=     1  Gaussian smearing, width (Ry)=  0.0220
                       cart. coord. in units 2pi/alat
        k(    1) = (   0.0000000   0.0000000   0.0000000), wk =   1.0000000

     Check: negative core charge=   -0.000002
     Generating pointlists ...
     new r_m :   0.1117 (alat units)  1.9717 (a.u.) for type    1
     new r_m :   0.0911 (alat units)  1.6072 (a.u.) for type    2
     new r_m :   0.0883 (alat units)  1.5594 (a.u.) for type    3
     new r_m :   0.0788 (alat units)  1.3900 (a.u.) for type    4
     new r_m :   0.0788 (alat units)  1.3900 (a.u.) for type    5

     Initial potential from superposition of free atoms

     starting charge     266.9726, renormalised to     277.0000

     negative rho (up, down):  9.216E-01 9.216E-01
     Starting wfcs are  287 randomized atomic wfcs

     Self-consistent Calculation

     iteration #  1     ecut=   120.00 Ry     beta= 0.70
     Davidson diagonalization with overlap
     ethr =  1.00E-02,  avg # of iterations =  2.0

     negative rho (up, down):  9.977E-01 9.973E-01

     total energy              =   -2930.48586107 Ry
     estimated scf accuracy    <     276.77796815 Ry

     total magnetization       =    -0.00 Bohr mag/cell
     absolute magnetization    =     0.09 Bohr mag/cell

[...]

     Magnetic moment per site  (integrated on atomic sphere of radius R)
     atom   1 (R=0.112)  charge=  9.4620    0.0000
     atom   2 (R=0.112)  charge=  9.0571   -0.0002
     atom   3 (R=0.112)  charge=  9.0561   -0.0002
     atom   4 (R=0.112)  charge=  9.0578    0.0001
     atom   5 (R=0.112)  charge=  9.0688   -0.0001
     atom   6 (R=0.091)  charge=  8.6978    0.0000
     atom   7 (R=0.091)  charge=  8.7033   -0.0001
     atom   8 (R=0.088)  charge=  8.1269    0.0001
     atom   9 (R=0.088)  charge=  8.1343   -0.0001
     atom  10 (R=0.088)  charge=  8.1071   -0.0004
     atom  11 (R=0.088)  charge=  8.1055   -0.0006
     atom  12 (R=0.088)  charge=  8.1066   -0.0006
     atom  13 (R=0.088)  charge=  8.1070    0.0006
     atom  14 (R=0.088)  charge=  8.1067   -0.0002
     atom  15 (R=0.088)  charge=  8.1026   -0.0002
     atom  16 (R=0.088)  charge=  8.1064   -0.0008
     atom  17 (R=0.088)  charge=  8.1123   -0.0000
     atom  18 (R=0.079)  charge=  6.3497    0.0001
     atom  19 (R=0.079)  charge=  6.2514   -0.0007
     atom  20 (R=0.079)  charge=  6.2491   -0.0001
     atom  21 (R=0.079)  charge=  6.2505   -0.0007
     atom  22 (R=0.079)  charge=  6.2630   -0.0000
     atom  23 (R=0.079)  charge=  1.0717    0.0000

     End of self-consistent calculation

 ------ SPIN UP ------------

          k = 0.0000 0.0000 0.0000 ( 61588 PWs)   bands (ev):

   -60.7911 -60.7553 -60.7458 -60.7109 -60.6776 -60.6710 -60.6305 -60.6244
   -60.5686 -60.5466 -54.3961 -54.3421 -54.2509 -54.2053 -52.6835 -46.3821
   -46.2398 -41.5917 -41.5845 -41.4895 -41.4178 -39.7843 -27.7796 -27.7507
   -27.6876 -27.6657 -27.6016 -27.5690 -27.4605 -27.4374 -27.4232 -27.3527
   -27.3082 -27.2826 -27.2513 -27.2373 -27.2082 -27.1977 -27.1668 -27.1580
   -27.1407 -27.1227 -27.1068 -27.0749 -26.9635 -26.9381 -26.9312 -26.9085
   -26.8735 -26.8538 -26.8283 -26.8245 -24.1742 -23.9684 -23.6683 -23.5759
   -23.3102 -23.2293 -23.1766 -23.0725 -22.9321 -22.8759 -22.8430 -22.6236
   -22.5755 -22.4649 -22.4494 -22.4219 -22.2671 -22.2418 -21.7446 -21.6793
   -21.6122 -20.1619 -19.8638 -19.8007 -19.7859 -19.5959 -19.5798 -19.5612
[...]
     absolute magnetization    =     0.00 Bohr mag/cell

     convergence has been achieved in   5 iterations

     negative rho (up, down):  9.090E-01 9.090E-01

     Forces acting on atoms (cartesian axes, Ry/au):

     atom    1 type  1   force =    -0.00140679   -0.03072898    0.00183073
     atom    2 type  1   force =    -0.11588051   -0.01231644   -0.00725274
     atom    3 type  1   force =    -0.10821983    0.01050943   -0.00286615
     atom    4 type  1   force =     0.11822462   -0.01178020   -0.01009444
     atom    5 type  1   force =     0.11002282    0.01585524   -0.01145357
     atom    6 type  2   force =    -0.00723256   -0.02233674    0.00587055
     atom    7 type  2   force =    -0.01546158    0.01029445   -0.01665951
     atom    8 type  3   force =    -0.10514991    0.00693196   -0.00456592
     atom    9 type  3   force =     0.06743033   -0.09164910   -0.12543937
     atom   10 type  3   force =    -0.02255359   -0.03104472   -0.05669310
     atom   11 type  3   force =    -0.02140239   -0.03465043    0.05692784
     atom   12 type  3   force =    -0.01889602    0.03680126   -0.05307817
     atom   13 type  3   force =    -0.00176759    0.03322463    0.06902450
     atom   14 type  3   force =     0.02043119   -0.03058648   -0.05583335
     atom   15 type  3   force =     0.02030783   -0.03666250    0.06249263
     atom   16 type  3   force =     0.01678235    0.03593556   -0.05076582
     atom   17 type  3   force =     0.00326810    0.04413240    0.07030373
     atom   18 type  4   force =    -0.00188717    0.02836761   -0.01294359
     atom   19 type  4   force =    -0.12825947   -0.00478184   -0.11511955
     atom   20 type  4   force =    -0.12414443    0.00684480    0.12009675
     atom   21 type  4   force =     0.13092970   -0.00524828   -0.12028779
     atom   22 type  4   force =     0.12348579   -0.00808417    0.12870958
     atom   23 type  5   force =     0.06137910    0.09097254    0.12779677
     The non-local contrib.  to forces
     atom    1 type  1   force =     0.00314499   -0.01599358    0.02456914
     atom    2 type  1   force =    -0.24448686   -0.16297061    0.01350573
     atom    3 type  1   force =    -0.23868900    0.15482900   -0.02284338
     atom    4 type  1   force =     0.24480740   -0.16184750    0.01919957
     atom    5 type  1   force =     0.26319414    0.12209782    0.00519973
     atom    6 type  2   force =     0.00759769   -0.04259594   -0.06035553
     atom    7 type  2   force =     0.01277809    0.10148787    0.07246049
     atom    8 type  3   force =    -0.25700645    0.00896439    0.00414702
     atom    9 type  3   force =     0.22051200    0.00684944   -0.00354682
     atom   10 type  3   force =    -0.20950934    0.00326098   -0.20541488
     atom   11 type  3   force =    -0.21744474    0.00472647    0.19467111
     atom   12 type  3   force =    -0.20173621   -0.02143718   -0.17247345
     atom   13 type  3   force =    -0.19445991   -0.00683146    0.20397013
     atom   14 type  3   force =     0.20950958    0.00536503   -0.20795049
     atom   15 type  3   force =     0.22146795    0.00704129    0.18712528
     atom   16 type  3   force =     0.19807695   -0.02297220   -0.18206596
     atom   17 type  3   force =     0.22474403   -0.02521829    0.16515273
     atom   18 type  4   force =    -0.00033053    0.06020343   -0.05909253
     atom   19 type  4   force =     0.05823573    0.01166020    0.07448236
     atom   20 type  4   force =     0.05315793   -0.01799184   -0.07036189
     atom   21 type  4   force =    -0.06758642    0.02575537    0.07182129
     atom   22 type  4   force =    -0.04066640   -0.01803593   -0.06153774
     atom   23 type  5   force =    -0.03711688   -0.03306829   -0.02800134
     The ionic contribution  to forces
     atom    1 type  1   force =    -0.38336550   -4.91954342   14.09023460
     atom    2 type  1   force =   -39.75507994   -6.15938599    0.73294063
     atom    3 type  1   force =   -39.77924531    6.21025712   -0.80036808
     atom    4 type  1   force =    39.59884005   -6.32364875    0.70010435
     atom    5 type  1   force =    39.46057248    6.68202527   -1.08857300
     atom    6 type  2   force =    -0.33247546   -3.78984020  -14.19485656
     atom    7 type  2   force =    -1.32206740    4.00184503   14.03781230
     atom    8 type  3   force =   -52.40913745    0.01820643   -0.16804119
     atom    9 type  3   force =    51.23563663   -1.03116286   -2.07734593
     atom   10 type  3   force =   -36.07616234   -2.09008469  -23.04166196
     atom   11 type  3   force =   -35.18553285   -0.85315405   22.07890141
     atom   12 type  3   force =   -35.27009257    0.81382224  -22.10188463
     atom   13 type  3   force =   -36.15207788    2.26788412   23.09953484
     atom   14 type  3   force =    35.99180922   -2.13709989  -23.09732433
     atom   15 type  3   force =    35.03961854   -0.92757363   22.16242099
     atom   16 type  3   force =    35.17472396    0.86609295  -22.16015714
     atom   17 type  3   force =    35.84076309    2.66337266   23.41325634
     atom   18 type  4   force =    -0.29159953    4.50448304  -14.15560749
     atom   19 type  4   force =   -35.92658479    0.93978351  -25.48019126
     atom   20 type  4   force =   -36.03321435   -1.01518436   25.53924946
     atom   21 type  4   force =    35.80099321    0.93821910  -25.67962951
     atom   22 type  4   force =    35.43588537   -1.52600281   26.66902474
     atom   23 type  5   force =     5.33779283    0.86668919    1.52216144
     The local contribution  to forces
     atom    1 type  1   force =     0.37859126    4.90362327  -14.11640630
     atom    2 type  1   force =    39.89741496    6.31139109   -0.76828758
     atom    3 type  1   force =    39.92365557   -6.35500000    0.80631259
     atom    4 type  1   force =   -39.73999969    6.47409355   -0.74529935
     atom    5 type  1   force =   -39.62958672   -6.78523770    1.05705468
     atom    6 type  2   force =     0.31811883    3.80187132   14.24346167
     atom    7 type  2   force =     1.29590732   -4.08837382  -14.12933636
     atom    8 type  3   force =    52.59309103   -0.02226812    0.14468222
     atom    9 type  3   force =   -51.41284355    0.93454356    1.94640821
     atom   10 type  3   force =    36.28684479    2.04235341   23.20682067
     atom   11 type  3   force =    35.40816748    0.80713078  -22.22805932
     atom   12 type  3   force =    35.47617056   -0.74141232   22.23632705
     atom   13 type  3   force =    36.36873924   -2.21865002  -23.24288899
     atom   14 type  3   force =   -36.20309656    2.08729251   23.26601814
     atom   15 type  3   force =   -35.26804571    0.87738375  -22.29706710
     atom   16 type  3   force =   -35.37694092   -0.79490662   22.30791501
     atom   17 type  3   force =   -36.08930934   -2.58615221  -23.51460183
     atom   18 type  4   force =     0.29035895   -4.52752438   14.18394957
     atom   19 type  4   force =    35.74973896   -0.95654877   25.29917164
     atom   20 type  4   force =    35.87043586    1.03819474  -25.35187185
     atom   21 type  4   force =   -35.61169094   -0.96819439   25.49596984
     atom   22 type  4   force =   -35.28355727    1.53592183  -26.48377127
     atom   23 type  5   force =    -5.23949045   -0.74259602   -1.36737177
     The core correction contribution to forces
     atom    1 type  1   force =     0.00030688    0.00108820   -0.00099392
     atom    2 type  1   force =    -0.01153083   -0.00190289    0.00034148
     atom    3 type  1   force =    -0.01207777    0.00231450   -0.00070311
     atom    4 type  1   force =     0.01268267   -0.00150436    0.00112218
     atom    5 type  1   force =     0.01434394   -0.00124521   -0.00004669
     atom    6 type  2   force =    -0.00036356    0.00218863    0.00259814
     atom    7 type  2   force =     0.00049040   -0.00528657   -0.00310486
     atom    8 type  3   force =    -0.03088078    0.00074113    0.00025252
     atom    9 type  3   force =     0.02448836   -0.00256016   -0.00387029
     atom   10 type  3   force =    -0.02201218    0.00930662   -0.01609646
     atom   11 type  3   force =    -0.02344619    0.00932982    0.01731132
     atom   12 type  3   force =    -0.02109681   -0.00957496   -0.01504038
     atom   13 type  3   force =    -0.01995781   -0.01020514    0.01562868
     atom   14 type  3   force =     0.02086441    0.00954296   -0.01608927
     atom   15 type  3   force =     0.02397319    0.00923565    0.01640045
     atom   16 type  3   force =     0.02034553   -0.00852274   -0.01641708
     atom   17 type  3   force =     0.02345013   -0.01038439    0.01406541
     atom   18 type  4   force =     0.00008277   -0.00313366    0.00273793
     atom   19 type  4   force =    -0.00953811   -0.00009762   -0.00973144
     atom   20 type  4   force =    -0.00931174    0.00066119    0.00949924
     atom   21 type  4   force =     0.00998455   -0.00078709   -0.00967849
     atom   22 type  4   force =     0.00840882    0.00062801    0.00916012
     atom   23 type  5   force =     0.00000000    0.00000000    0.00000000
     The Hubbard contrib.    to forces
     atom    1 type  1   force =     0.00000000    0.00000000    0.00000000
     atom    2 type  1   force =     0.00000000    0.00000000    0.00000000
     atom    3 type  1   force =     0.00000000    0.00000000    0.00000000
     atom    4 type  1   force =     0.00000000    0.00000000    0.00000000
     atom    5 type  1   force =     0.00000000    0.00000000    0.00000000
     atom    6 type  2   force =     0.00000000    0.00000000    0.00000000
     atom    7 type  2   force =     0.00000000    0.00000000    0.00000000
     atom    8 type  3   force =     0.00000000    0.00000000    0.00000000
     atom    9 type  3   force =     0.00000000    0.00000000    0.00000000
     atom   10 type  3   force =     0.00000000    0.00000000    0.00000000
     atom   11 type  3   force =     0.00000000    0.00000000    0.00000000
     atom   12 type  3   force =     0.00000000    0.00000000    0.00000000
     atom   13 type  3   force =     0.00000000    0.00000000    0.00000000
     atom   14 type  3   force =     0.00000000    0.00000000    0.00000000
     atom   15 type  3   force =     0.00000000    0.00000000    0.00000000
     atom   16 type  3   force =     0.00000000    0.00000000    0.00000000
     atom   17 type  3   force =     0.00000000    0.00000000    0.00000000
     atom   18 type  4   force =     0.00000000    0.00000000    0.00000000
     atom   19 type  4   force =     0.00000000    0.00000000    0.00000000
     atom   20 type  4   force =     0.00000000    0.00000000    0.00000000
     atom   21 type  4   force =     0.00000000    0.00000000    0.00000000
     atom   22 type  4   force =     0.00000000    0.00000000    0.00000000
     atom   23 type  5   force =     0.00000000    0.00000000    0.00000000
     The SCF correction term to forces
     atom    1 type  1   force =     0.00000041    0.00013859    0.00351479
     atom    2 type  1   force =    -0.00211301    0.00059400    0.01333460
     atom    3 type  1   force =    -0.00177850   -0.00184915    0.01382343
     atom    4 type  1   force =     0.00197900    0.00116891    0.01386640
     atom    5 type  1   force =     0.00158382   -0.00174289    0.01399929
     atom    6 type  2   force =    -0.00002523    0.00608149    0.01411042
     atom    7 type  2   force =    -0.00248515    0.00066398    0.00459652
     atom    8 type  3   force =    -0.00113143    0.00133018    0.01348110
     atom    9 type  3   force =    -0.00027829    0.00072296    0.01200305
     atom   10 type  3   force =    -0.00162969    0.00416099   -0.00125288
     atom   11 type  3   force =    -0.00306126   -0.00264141   -0.00680908
     atom   12 type  3   force =    -0.00205616   -0.00455447   -0.00091916
     atom   13 type  3   force =    -0.00392641    0.00106916   -0.00813258
     atom   14 type  3   force =     0.00142936    0.00435496   -0.00139980
     atom   15 type  3   force =     0.00337869   -0.00270752   -0.00729939
     atom   16 type  3   force =     0.00066166   -0.00371378   -0.00095305
     atom   17 type  3   force =     0.00370502    0.00255668   -0.00848133
     atom   18 type  4   force =    -0.00031401   -0.00561878    0.01415652
     atom   19 type  4   force =    -0.00002644    0.00046289    0.00023675
     atom   20 type  4   force =    -0.00512731    0.00120712   -0.00733062
     atom   21 type  4   force =    -0.00068587   -0.00019922    0.00031666
     atom   22 type  4   force =     0.00350012   -0.00055322   -0.00507867
     atom   23 type  5   force =     0.00027843   -0.00001030    0.00009604

     Total force =     0.536452     Total SCF correction =     0.046185

     Computing stress (Cartesian axis) and pressure

     negative rho (up, down):  9.090E-01 9.090E-01
          total   stress  (Ry/bohr**3)                   (kbar)     P=       88.61
   0.00063238   0.00000936   0.00002309           93.03        1.38        3.40
   0.00000936   0.00070105   0.00003078            1.38      103.13        4.53
   0.00002309   0.00003078   0.00047372            3.40        4.53       69.69

     Entering Dynamics:    iteration =    20
                           time      =   0.0041 pico-seconds

ATOMIC_POSITIONS (angstrom)
Hf            2.6705110302        2.8276824757        6.6054837277
Hf            1.2521041463        1.2869911474        5.0598926325
Hf            1.2546674492        7.3907728204        5.0895787684
Hf            4.0888404123        1.2869879188        5.0599162404
Hf            4.0862827773        7.3908542004        5.0895125099
Nb            2.6706721084        2.7975299447        3.5174744958
Nb            2.6700417886        5.8776362912        6.6361983808
Ta            1.2086147240        4.3418975557        5.0726052031
Ta            4.1242409779        4.3270328687        5.0478791756
Ta            1.3074152184        1.3145926257        2.0595999795
Ta            1.3030003914        1.3088258845        8.0966867321
Ta            1.3042593250        7.3771177165        2.0471053957
Ta            1.3081235489        7.3663158269        8.0882211159
Ta            4.0334235119        1.3146725624        2.0596037607
Ta            4.0378883578        1.3088649678        8.0967276475
Ta            4.0366257696        7.3770558299        2.0471361993
Ta            4.0328227160        7.3663523278        8.0882047474
Zr            2.6704957524        5.8677319985        3.5286606957
Zr            1.2413920449        4.3228350892        1.9988396849
Zr            1.2379726392        4.3551070036        8.1539009699
Zr            4.0995857391        4.3228328037        1.9987349371
Zr            4.1029243947        4.3548328535        8.1541094053
H             4.6168076558        5.1927485813        6.4875458695

     kinetic energy (Ekin) =           4.01887533 Ry
     temperature           =       19228.18871886 K
     Ekin + Etot (const)   =       -2939.02762036 Ry
     Ions kinetic stress =           70.98 (kbar)
                                     17.69          30.24          49.91
                                     30.24          52.39          86.46
                                     49.91          86.46         142.85

     Linear momentum :   -0.0000000000    0.0000000000   -0.0000000000

     The maximum number of steps has been reached.

     End of molecular dynamics calculation

     diffusion coefficients :
     atom     1   D =       0.00000001 cm^2/s
     atom     2   D =       0.00000001 cm^2/s
     atom     3   D =       0.00000002 cm^2/s
     atom     4   D =       0.00000002 cm^2/s
     atom     5   D =       0.00000003 cm^2/s
     atom     6   D =       0.00000002 cm^2/s
     atom     7   D =       0.00000001 cm^2/s
     atom     8   D =       0.00000002 cm^2/s
     atom     9   D =       0.00000318 cm^2/s
     atom    10   D =       0.00000000 cm^2/s
     atom    11   D =       0.00000002 cm^2/s
     atom    12   D =       0.00000001 cm^2/s
     atom    13   D =       0.00000003 cm^2/s
     atom    14   D =       0.00000001 cm^2/s
     atom    15   D =       0.00000002 cm^2/s
     atom    16   D =       0.00000001 cm^2/s
     atom    17   D =       0.00000003 cm^2/s
     atom    18   D =       0.00000002 cm^2/s
     atom    19   D =       0.00000003 cm^2/s
     atom    20   D =       0.00000010 cm^2/s
     atom    21   D =       0.00000006 cm^2/s
     atom    22   D =       0.00000012 cm^2/s
     atom    23   D =       0.00032889 cm^2/s

     < D > =       0.00001446 cm^2/s

     Writing all to output data dir outdir/pwscf.save/

     General routines

     Parallel routines

   This run was terminated on:  19:38:52  15Jun2023

   JOB DONE.