     Program PWSCF v.7.2 starts on 11Jun2023 at  9:39:31

     Reading input from md_data/md_Hf5Nb2Ta10Zr5H_10steps_50eV_incident45_polar180.in
Warning: card &CELL ignored
Warning: card / ignored

     Current dimensions of program PWSCF are:
     Max number of different atomic species (ntypx) = 10
     Max number of k-points (npk) =  40000
     Max angular momentum in pseudopotentials (lmaxx) =  4

     File outdir/pwscf.md deleted, as requested

     gamma-point specific algorithms are used

     R & G space division:  proc/nbgrp/npool/nimage =      12
     Subspace diagonalization in iterative solution of the eigenvalue problem:
     one sub-group per band group will be used

     Using Slab Decomposition

     bravais-lattice index     =            0
     lattice parameter (alat)  =      13.8706  a.u.
     unit-cell volume          =    4363.8306 (a.u.)^3
     number of atoms/cell      =           23
     number of atomic types    =            5
     number of electrons       =       277.00
     number of Kohn-Sham states=          167
     kinetic-energy cutoff     =     120.0000  Ry
     charge density cutoff     =     480.0000  Ry
     scf convergence threshold =      1.0E-03
     mixing beta               =       0.7000
     number of iterations used =            8  TF        mixing
     energy convergence thresh.=      0.0E+00
     force convergence thresh. =      0.0E+00
     Exchange-correlation=  SLA  PW   PBX  PBC
                           (   1   4   3   4   0   0   0)
     nstep                     =           10

     celldm(1)=  13.870589  celldm(2)=   0.000000  celldm(3)=   0.000000
     celldm(4)=   0.000000  celldm(5)=   0.000000  celldm(6)=   0.000000

     crystal axes: (cart. coord. in units of alat)
               a(1) = (   1.000000   0.000000   0.000000 )
               a(2) = (   0.000000   1.182561   0.000000 )
               a(3) = (   0.000000   0.000000   1.382801 )

     reciprocal axes: (cart. coord. in units 2 pi/alat)
               b(1) = (  1.000000  0.000000  0.000000 )
               b(2) = (  0.000000  0.845622  0.000000 )
               b(3) = (  0.000000  0.000000  0.723170 )

     PseudoPot. # 1 for Hf read from file:
     q-e/pseudo/hf_pbe_v1.uspp.F.UPF
     MD5 check sum: 8ee9378dfe14276e333edf04c5e4aa26
     Pseudo is Ultrasoft + core correction, Zval = 12.0
     Generated by new atomic code, or converted to UPF format
     Using radial grid of  921 points,  8 beta functions with:
                l(1) =   0
                l(2) =   0
                l(3) =   0
                l(4) =   1
                l(5) =   1
                l(6) =   2
                l(7) =   2
                l(8) =   3
     Q(r) pseudized with  6 coefficients,  rinner =    1.200   1.200   1.200
                                                       1.200   1.200   1.200
                                                       1.200

     PseudoPot. # 2 for Nb read from file:
     q-e/pseudo/nb_pbe_v1.uspp.F.UPF
     MD5 check sum: 573aab8a2fa660278ed4a62cd769473f
     Pseudo is Ultrasoft + core correction, Zval = 13.0
     Generated by new atomic code, or converted to UPF format
     Using radial grid of  887 points,  6 beta functions with:
                l(1) =   0
                l(2) =   0
                l(3) =   1
                l(4) =   1
                l(5) =   2
                l(6) =   2
     Q(r) pseudized with  6 coefficients,  rinner =    1.000   1.000   1.000
                                                       1.000   1.000

     PseudoPot. # 3 for Ta read from file:
     q-e/pseudo/ta_pbe_v1.uspp.F.UPF
     MD5 check sum: f8bbe9446314a3b8ea5d9f3e3836c939
     Pseudo is Ultrasoft + core correction, Zval = 13.0
     Generated by new atomic code, or converted to UPF format
     Using radial grid of  921 points,  7 beta functions with:
                l(1) =   0
                l(2) =   0
                l(3) =   1
                l(4) =   1
                l(5) =   2
                l(6) =   2
                l(7) =   3
     Q(r) pseudized with  6 coefficients,  rinner =    1.300   1.300   1.300
                                                       1.300   1.300   1.300
                                                       1.300

     PseudoPot. # 4 for Zr read from file:
     q-e/pseudo/zr_pbe_v1.uspp.F.UPF
     MD5 check sum: 5db81b1e868ab7776c4564c113de050b
     Pseudo is Ultrasoft + core correction, Zval = 12.0
     Generated by new atomic code, or converted to UPF format
     Using radial grid of  887 points,  6 beta functions with:
                l(1) =   0
                l(2) =   0
                l(3) =   1
                l(4) =   1
                l(5) =   2
                l(6) =   2
     Q(r) pseudized with  6 coefficients,  rinner =    1.200   1.200   1.200
                                                       1.200   1.200

     PseudoPot. # 5 for H  read from file:
     q-e/pseudo/h_pbe_v1.4.uspp.F.UPF
     MD5 check sum: 761ae9a214b05c3daf00ab9f6b793d6f
     Pseudo is Ultrasoft, Zval =  1.0
     Generated by new atomic code, or converted to UPF format
     Using radial grid of  615 points,  2 beta functions with:
                l(1) =   0
                l(2) =   0
     Q(r) pseudized with  8 coefficients,  rinner =    0.700

     atomic species   valence    mass     pseudopotential
        Hf            12.00   178.49000     Hf( 1.00)
        Nb            13.00    92.90637     Nb( 1.00)
        Ta            13.00   180.94788     Ta( 1.00)
        Zr            12.00    91.22400     Zr( 1.00)
        H              1.00     2.01400     H ( 1.00)

     Starting magnetic structure
     atomic species   magnetization
        Hf           0.000
        Nb           0.000
        Ta           0.000
        Zr           0.000
        H            0.000

     No symmetry found

   Cartesian axes

     site n.     atom                  positions (alat units)
         1           Hf  tau(   1) = (   0.3637602   0.3851666   0.8997227  )
         2           Hf  tau(   2) = (   0.1707072   0.1752431   0.6891644  )
         3           Hf  tau(   3) = (   0.1710473   1.0067854   0.6931973  )
         4           Hf  tau(   4) = (   0.5568133   0.1752431   0.6891644  )
         5           Hf  tau(   5) = (   0.5564732   1.0067854   0.6931973  )
         6           Nb  tau(   6) = (   0.3637602   0.3810532   0.4789623  )
         7           Nb  tau(   7) = (   0.3637602   0.8005966   0.9039507  )
         8           Ta  tau(   8) = (   0.1647647   0.5914071   0.6908891  )
         9           Ta  tau(   9) = (   0.5627557   0.5914071   0.6908891  )
        10           Ta  tau(  10) = (   0.1780998   0.1790358   0.2804876  )
        11           Ta  tau(  11) = (   0.1774916   0.1782549   1.1028038  )
        12           Ta  tau(  12) = (   0.1776580   1.0048810   0.2787789  )
        13           Ta  tau(  13) = (   0.1781622   1.0034173   1.1016352  )
        14           Ta  tau(  14) = (   0.5494206   0.1790358   0.2804876  )
        15           Ta  tau(  15) = (   0.5500289   0.1782549   1.1028038  )
        16           Ta  tau(  16) = (   0.5498625   1.0048810   0.2787789  )
        17           Ta  tau(  17) = (   0.5493582   1.0034173   1.1016352  )
        18           Zr  tau(  18) = (   0.3637602   0.7992215   0.4805700  )
        19           Zr  tau(  19) = (   0.1694598   0.5888390   0.2724796  )
        20           Zr  tau(  20) = (   0.1689898   0.5932048   1.1103210  )
        21           Zr  tau(  21) = (   0.5580607   0.5888390   0.2724796  )
        22           Zr  tau(  22) = (   0.5585306   0.5932048   1.1103210  )
        23           H   tau(  23) = (   0.6590918   0.4949446   0.6910327  )

     number of k points=     1  Gaussian smearing, width (Ry)=  0.0220
                       cart. coord. in units 2pi/alat
        k(    1) = (   0.0000000   0.0000000   0.0000000), wk =   1.0000000

     Check: negative core charge=   -0.000002
     Generating pointlists ...
     new r_m :   0.1385 (alat units)  1.9206 (a.u.) for type    1
     new r_m :   0.1397 (alat units)  1.9374 (a.u.) for type    2
     new r_m :   0.0562 (alat units)  0.7800 (a.u.) for type    3
     new r_m :   0.1415 (alat units)  1.9625 (a.u.) for type    4
     new r_m :   0.0562 (alat units)  0.7800 (a.u.) for type    5

     Initial potential from superposition of free atoms

     starting charge     266.9726, renormalised to     277.0000

     negative rho (up, down):  9.202E-01 9.202E-01
     Starting wfcs are  287 randomized atomic wfcs

     Self-consistent Calculation

     iteration #  1     ecut=   120.00 Ry     beta= 0.70
     Davidson diagonalization with overlap
     ethr =  1.00E-02,  avg # of iterations =  3.0

     negative rho (up, down):  9.512E-01 9.510E-01

     total energy              =   -2933.13036489 Ry
     estimated scf accuracy    <     321.21016563 Ry

     total magnetization       =     0.00 Bohr mag/cell
     absolute magnetization    =     0.08 Bohr mag/cell

[...]

     Magnetic moment per site  (integrated on atomic sphere of radius R)
     atom   1 (R=0.138)  charge=  9.2504   -0.0001
     atom   2 (R=0.138)  charge=  8.8873   -0.0003
     atom   3 (R=0.138)  charge=  8.8887    0.0001
     atom   4 (R=0.138)  charge=  8.8774   -0.0001
     atom   5 (R=0.138)  charge=  8.8931   -0.0003
     atom   6 (R=0.140)  charge= 10.3492   -0.0001
     atom   7 (R=0.140)  charge= 10.3514   -0.0001
     atom   8 (R=0.056)  charge=  1.3487   -0.0000
     atom   9 (R=0.056)  charge=  1.3650   -0.0000
     atom  10 (R=0.056)  charge=  1.3456   -0.0000
     atom  11 (R=0.056)  charge=  1.3451   -0.0000
     atom  12 (R=0.056)  charge=  1.3454    0.0000
     atom  13 (R=0.056)  charge=  1.3454    0.0000
     atom  14 (R=0.056)  charge=  1.3466   -0.0000
     atom  15 (R=0.056)  charge=  1.3467   -0.0000
     atom  16 (R=0.056)  charge=  1.3454   -0.0000
     atom  17 (R=0.056)  charge=  1.3464   -0.0000
     atom  18 (R=0.141)  charge=  9.4540   -0.0000
     atom  19 (R=0.141)  charge=  8.9978   -0.0004
     atom  20 (R=0.141)  charge=  8.9936   -0.0010
     atom  21 (R=0.141)  charge=  8.9997   -0.0003
     atom  22 (R=0.141)  charge=  8.9974   -0.0007
     atom  23 (R=0.056)  charge=  0.7704    0.0000

     End of self-consistent calculation

 ------ SPIN UP ------------

          k = 0.0000 0.0000 0.0000 ( 48454 PWs)   bands (ev):

   -57.8447 -57.8386 -57.7990 -57.7931 -57.7617 -57.7612 -57.7168 -57.7164
   -57.6189 -57.3946 -51.4145 -51.3627 -51.2872 -51.2300 -49.7042 -43.2457
   -43.2169 -38.6394 -38.6183 -38.5381 -38.5347 -36.8269 -25.9178 -24.8585
   -24.8547 -24.7719 -24.7696 -24.6546 -24.6485 -24.5350 -24.5227 -24.3916
   -24.3685 -24.3391 -24.3067 -24.3012 -24.2788 -24.2553 -24.2363 -24.1974
   -24.1912 -24.1505 -24.0315 -24.0189 -24.0171 -24.0155 -23.9660 -23.9560
   -23.9217 -23.9198 -23.6537 -23.6121 -21.1990 -20.9855 -20.6712 -20.5886
   -20.3334 -20.1917 -20.1528 -20.0585 -19.9554 -19.8671 -19.8635 -19.6418
   -19.4924 -19.4392 -19.3826 -19.3360 -19.2844 -19.2238 -18.7771 -18.7004
   -18.6352 -17.1901 -16.8777 -16.8601 -16.8286 -16.6277 -16.6175 -16.6066
[...]
     9.3853   9.5038   9.6921   9.7124   9.7980   9.8602   9.9711  10.1000
    10.1752  10.2419  10.3169  10.3603  10.3939  10.4362  10.5441  10.5893
    10.6968  10.7662  10.9161  10.9409  11.0145  11.0354  11.1874  11.2218
    11.2613  11.3841  11.3964  11.5747  11.6908  11.7839  11.8034  11.8147
    11.9941  12.0548  12.1421  12.1822  12.1917  12.2065  12.2136

     the Fermi energy is    10.2818 ev

!    total energy              =   -2943.21185468 Ry
     estimated scf accuracy    <       0.00029455 Ry
     smearing contrib. (-TS)   =      -0.09637652 Ry
     internal energy E=F+TS    =   -2943.11547816 Ry

     total magnetization       =    -0.00 Bohr mag/cell
     absolute magnetization    =     0.00 Bohr mag/cell

     convergence has been achieved in   5 iterations

     negative rho (up, down):  9.079E-01 9.079E-01

     Forces acting on atoms (cartesian axes, Ry/au):

     atom    1 type  1   force =    -0.01329690   -0.01975109    0.01781753
     atom    2 type  1   force =    -0.12967423   -0.01997780    0.00364914
     atom    3 type  1   force =    -0.13118918    0.01754349    0.01088394
     atom    4 type  1   force =     0.09167161   -0.06604286   -0.00206655
     atom    5 type  1   force =     0.15280431    0.00606490    0.01249707
     atom    6 type  2   force =    -0.01593379   -0.01061419   -0.00882615
     atom    7 type  2   force =     0.00342060    0.02229568   -0.00085907
     atom    8 type  3   force =    -0.12646543    0.00144743   -0.00094925
     atom    9 type  3   force =     0.03929044    0.21040900   -0.00280366
     atom   10 type  3   force =    -0.02324894   -0.02195523   -0.06394280
     atom   11 type  3   force =    -0.02611076   -0.02842088    0.05717350
     atom   12 type  3   force =    -0.03448654    0.02439691   -0.05704518
     atom   13 type  3   force =    -0.03677937    0.02020086    0.05497324
     atom   14 type  3   force =     0.02817259   -0.02872279   -0.06261204
     atom   15 type  3   force =     0.03203974   -0.03634656    0.05847776
     atom   16 type  3   force =     0.02560317    0.03193927   -0.06117361
     atom   17 type  3   force =     0.02467202    0.02614192    0.05672387
     atom   18 type  4   force =     0.00127616    0.02590842   -0.01630787
     atom   19 type  4   force =    -0.14117051   -0.00424321   -0.12121015
     atom   20 type  4   force =    -0.15008367    0.00579388    0.12082464
     atom   21 type  4   force =     0.13728676    0.00010793   -0.12102236
     atom   22 type  4   force =     0.14562757    0.00598469    0.12177162
     atom   23 type  5   force =     0.14657436   -0.16215977    0.00402638
     The non-local contrib.  to forces
     atom    1 type  1   force =     0.01126754   -0.00523972    0.02801001
     atom    2 type  1   force =    -0.24233133   -0.16163961    0.01850370
     atom    3 type  1   force =    -0.24656106    0.15914283   -0.02417109
     atom    4 type  1   force =     0.18690921   -0.18810828    0.01434846
     atom    5 type  1   force =     0.24494455    0.20686757   -0.02396625
     atom    6 type  2   force =     0.00186277   -0.07261964   -0.06369127
     atom    7 type  2   force =     0.00459245    0.07826228    0.05036236
     atom    8 type  3   force =    -0.25553413   -0.00650811    0.00059097
     atom    9 type  3   force =     0.17304080   -0.00526838    0.00124883
     atom   10 type  3   force =    -0.23174324    0.01108248   -0.22902033
     atom   11 type  3   force =    -0.23590488    0.01551099    0.21613866
     atom   12 type  3   force =    -0.23130849   -0.03228883   -0.19661743
     atom   13 type  3   force =    -0.23982772   -0.01582237    0.21795766
     atom   14 type  3   force =     0.24024838    0.01031692   -0.21971050
     atom   15 type  3   force =     0.24742119    0.00995197    0.20995953
     atom   16 type  3   force =     0.22627943   -0.02520570   -0.19169420
     atom   17 type  3   force =     0.23295154   -0.00525124    0.21705641
     atom   18 type  4   force =    -0.00276762    0.07290609   -0.05212109
     atom   19 type  4   force =     0.07284281    0.00316056    0.05851190
     atom   20 type  4   force =     0.06708754    0.00198648   -0.05565500
     atom   21 type  4   force =    -0.07542995    0.00198144    0.04232614
     atom   22 type  4   force =    -0.07059926   -0.00117465   -0.04272683
     atom   23 type  5   force =    -0.03866383    0.03078046    0.00143987
     The ionic contribution  to forces
     atom    1 type  1   force =    -0.71769749   -4.63375308   15.46109390
     atom    2 type  1   force =   -27.93424339   -6.41185214    0.78011867
     atom    3 type  1   force =   -27.84144318    6.13427191   -0.71417019
     atom    4 type  1   force =    27.18075814   -8.28989654    0.76291934
     atom    5 type  1   force =    27.77205544    6.10897605   -0.71315686
     atom    6 type  2   force =    -0.75757167   -3.59978510  -15.47645642
     atom    7 type  2   force =    -0.14848494    3.83236877   14.97566225
     atom    8 type  3   force =   -38.76553664    0.32343841   -0.06825124
     atom    9 type  3   force =    37.67223891    3.12442982   -0.07235189
     atom   10 type  3   force =   -24.87710764   -2.18883120  -24.70229157
     atom   11 type  3   force =   -23.94939249   -0.92259201   23.69773791
     atom   12 type  3   force =   -24.05004216    0.75307339  -23.65384649
     atom   13 type  3   force =   -24.83345309    2.16094448   24.59265141
     atom   14 type  3   force =    24.76839846   -2.31387095  -24.93763024
     atom   15 type  3   force =    23.84252995   -1.04688069   23.93131602
     atom   16 type  3   force =    24.01490962    0.74763250  -23.69933764
     atom   17 type  3   force =    24.79779230    2.15561526   24.63794738
     atom   18 type  4   force =    -0.13875993    4.59390529  -14.82597824
     atom   19 type  4   force =   -25.11649437    1.06463037  -27.11019421
     atom   20 type  4   force =   -25.07223817   -0.87860651   27.08829809
     atom   21 type  4   force =    25.02518123    1.17329036  -27.34919709
     atom   22 type  4   force =    24.98298087   -0.76945279   27.32240035
     atom   23 type  5   force =     4.14562024   -1.11705559    0.07271676
     The local contribution  to forces
     atom    1 type  1   force =     0.69184931    4.60816070  -15.45767840
     atom    2 type  1   force =    28.05557373    6.55630426   -0.77649017
     atom    3 type  1   force =    27.96950462   -6.27742362    0.77000772
     atom    4 type  1   force =   -27.27318632    8.41700700   -0.75972715
     atom    5 type  1   force =   -27.87749345   -6.31777612    0.77158077
     atom    6 type  2   force =     0.73853092    3.66290600   15.53955322
     atom    7 type  2   force =     0.14819288   -3.87763826  -15.01206877
     atom    8 type  3   force =    38.92336554   -0.31452941    0.08260293
     atom    9 type  3   force =   -37.81835279   -2.91416345    0.08343791
     atom   10 type  3   force =    25.11466311    2.15402514   24.87956217
     atom   11 type  3   force =    24.18180020    0.86615462  -23.87777481
     atom   12 type  3   force =    24.27853073   -0.69535708   23.80531013
     atom   13 type  3   force =    25.06031161   -2.11351851  -24.77684573
     atom   14 type  3   force =   -25.01042426    2.27420828   25.10443517
     atom   15 type  3   force =   -24.08121837    0.98708975  -24.10126570
     atom   16 type  3   force =   -24.24543652   -0.69002388   23.84238963
     atom   17 type  3   force =   -25.02776265   -2.11267966  -24.82040893
     atom   18 type  4   force =     0.14256268   -4.64007756   14.87003391
     atom   19 type  4   force =    24.92005659   -1.07190168   26.93642827
     atom   20 type  4   force =    24.85822729    0.88261701  -26.92278880
     atom   21 type  4   force =   -24.82973542   -1.17492637   27.19025747
     atom   22 type  4   force =   -24.76983365    0.77704087  -27.16715755
     atom   23 type  5   force =    -3.96018504    0.92387878   -0.06713143
     The core correction contribution to forces
     atom    1 type  1   force =     0.00078521    0.00524689   -0.00157590
     atom    2 type  1   force =    -0.00929985   -0.00364880    0.00114795
     atom    3 type  1   force =    -0.01174491    0.00187056   -0.00196358
     atom    4 type  1   force =    -0.00179669   -0.00547525    0.00048767
     atom    5 type  1   force =     0.01372760    0.00750277   -0.00280484
     atom    6 type  2   force =     0.00022922    0.00359194    0.00264559
     atom    7 type  2   force =    -0.00021685   -0.00391814   -0.00157319
     atom    8 type  3   force =    -0.02945569    0.00000188    0.00013064
     atom    9 type  3   force =     0.01392745    0.00754460    0.00094547
     atom   10 type  3   force =    -0.02496656    0.00693472   -0.01688783
     atom   11 type  3   force =    -0.02605532    0.00788853    0.01681603
     atom   12 type  3   force =    -0.02675679   -0.00722414   -0.01545024
     atom   13 type  3   force =    -0.02652939   -0.00653175    0.01601086
     atom   14 type  3   force =     0.02600176    0.00620524   -0.01476744
     atom   15 type  3   force =     0.02763179    0.00749471    0.01515200
     atom   16 type  3   force =     0.02529104   -0.00716644   -0.01584994
     atom   17 type  3   force =     0.02521006   -0.00553004    0.01690476
     atom   18 type  4   force =     0.00018008   -0.00416819    0.00242550
     atom   19 type  4   force =    -0.01010800    0.00046459   -0.00878237
     atom   20 type  4   force =    -0.00998619   -0.00043105    0.00870902
     atom   21 type  4   force =     0.01029560    0.00052549   -0.00767425
     atom   22 type  4   force =     0.01025201   -0.00035086    0.00783225
     atom   23 type  5   force =     0.00000000    0.00000000    0.00000000
     The Hubbard contrib.    to forces
     atom    1 type  1   force =     0.00000000    0.00000000    0.00000000
     atom    2 type  1   force =     0.00000000    0.00000000    0.00000000
     atom    3 type  1   force =     0.00000000    0.00000000    0.00000000
     atom    4 type  1   force =     0.00000000    0.00000000    0.00000000
     atom    5 type  1   force =     0.00000000    0.00000000    0.00000000
     atom    6 type  2   force =     0.00000000    0.00000000    0.00000000
     atom    7 type  2   force =     0.00000000    0.00000000    0.00000000
     atom    8 type  3   force =     0.00000000    0.00000000    0.00000000
     atom    9 type  3   force =     0.00000000    0.00000000    0.00000000
     atom   10 type  3   force =     0.00000000    0.00000000    0.00000000
     atom   11 type  3   force =     0.00000000    0.00000000    0.00000000
     atom   12 type  3   force =     0.00000000    0.00000000    0.00000000
     atom   13 type  3   force =     0.00000000    0.00000000    0.00000000
     atom   14 type  3   force =     0.00000000    0.00000000    0.00000000
     atom   15 type  3   force =     0.00000000    0.00000000    0.00000000
     atom   16 type  3   force =     0.00000000    0.00000000    0.00000000
     atom   17 type  3   force =     0.00000000    0.00000000    0.00000000
     atom   18 type  4   force =     0.00000000    0.00000000    0.00000000
     atom   19 type  4   force =     0.00000000    0.00000000    0.00000000
     atom   20 type  4   force =     0.00000000    0.00000000    0.00000000
     atom   21 type  4   force =     0.00000000    0.00000000    0.00000000
     atom   22 type  4   force =     0.00000000    0.00000000    0.00000000
     atom   23 type  5   force =     0.00000000    0.00000000    0.00000000
     The SCF correction term to forces
     atom    1 type  1   force =     0.00000000    0.00000000   -0.00000000
     atom    2 type  1   force =     0.00000000    0.00000000   -0.00000000
     atom    3 type  1   force =    -0.00000000   -0.00000000   -0.00000000
     atom    4 type  1   force =    -0.00000000    0.00000000   -0.00000000
     atom    5 type  1   force =    -0.00000000    0.00000000   -0.00000000
     atom    6 type  2   force =     0.00000000   -0.00000000   -0.00000000
     atom    7 type  2   force =    -0.00000000   -0.00000000   -0.00000000
     atom    8 type  3   force =     0.00000000   -0.00000000   -0.00000000
     atom    9 type  3   force =    -0.00000000   -0.00000000   -0.00000000
     atom   10 type  3   force =    -0.00406050   -0.00523727    0.00601770
     atom   11 type  3   force =     0.00347584    0.00454610    0.00557866
     atom   12 type  3   force =    -0.00487572    0.00612268    0.00488179
     atom   13 type  3   force =     0.00275333   -0.00494189    0.00652199
     atom   14 type  3   force =     0.00398236   -0.00565316    0.00638392
     atom   15 type  3   force =    -0.00429070    0.00592681    0.00463887
     atom   16 type  3   force =     0.00459370    0.00663190    0.00464148
     atom   17 type  3   force =    -0.00348513   -0.00608329    0.00654720
     atom   18 type  4   force =     0.00009506    0.00327190   -0.00934501
     atom   19 type  4   force =    -0.00743343   -0.00066794    0.00414920
     atom   20 type  4   force =     0.00685995    0.00015705    0.00358428
     atom   21 type  4   force =     0.00700941   -0.00083389    0.00458831
     atom   22 type  4   force =    -0.00713830   -0.00014878    0.00274634
     atom   23 type  5   force =    -0.00016290    0.00016568   -0.00167588

     Total force =     0.480647     Total SCF correction =     0.031766

     Entering Dynamics:    iteration =    10
                           time      =   0.0020 pico-seconds

ATOMIC_POSITIONS (angstrom)
Hf            2.6699999570        2.8271230292        6.6039642186    0   0   0
Hf            1.2529906802        1.2862841814        5.0584662261    0   0   0
Hf            1.2554868986        7.3898042948        5.0880677674    0   0   0
Hf            4.0870092338        1.2862841814        5.0584662261    0   0   0
Hf            4.0845130154        7.3898042948        5.0880677674    0   0   0
Nb            2.6699999570        2.7969306055        3.5155832167    0   0   0
Nb            2.6699999570        5.8763786763        6.6349979432    0   0   0
Ta            1.2093730560        4.3409278516        5.0711258323    0   0   0
Ta            4.1306268580        4.3409278516        5.0711258323    0   0   0
Ta            1.3071726703        1.3140609923        2.0586070488
Ta            1.3027033894        1.3083133891        8.0947461642
Ta            1.3039155511        7.3759019212        2.0460706347
Ta            1.3076150663        7.3651358725        8.0861736057
Ta            4.0328300505        1.3140526657        2.0586118765
Ta            4.0372978506        1.3083054319        8.0947386402
Ta            4.0360560484        7.3759115201        2.0460732843
Ta            4.0323531492        7.3651485296        8.0861675544
Zr            2.6700455344        5.8663986267        3.5273008251
Zr            1.2429964126        4.3220589419        1.9993344981
Zr            1.2395227657        4.3541567374        8.1504278388
Zr            4.0969640557        4.3220684902        1.9993413496
Zr            4.1004347349        4.3541664670        8.1504259593
H             4.5718805488        2.8266953571        5.0736583633

     kinetic energy (Ekin) =           1.73818217 Ry
     temperature           =       13068.44088607 K
     Ekin + Etot (const)   =       -2941.47367251 Ry

     The maximum number of steps has been reached.

     End of molecular dynamics calculation

     diffusion coefficients :
     atom     1   D =       0.00000000 cm^2/s
     atom     2   D =       0.00000000 cm^2/s
     atom     3   D =       0.00000000 cm^2/s
     atom     4   D =       0.00000000 cm^2/s
     atom     5   D =       0.00000000 cm^2/s
     atom     6   D =       0.00000000 cm^2/s
     atom     7   D =       0.00000000 cm^2/s
     atom     8   D =       0.00000000 cm^2/s
     atom     9   D =       0.00000000 cm^2/s
     atom    10   D =       0.00000000 cm^2/s
     atom    11   D =       0.00000000 cm^2/s
     atom    12   D =       0.00000000 cm^2/s
     atom    13   D =       0.00000000 cm^2/s
     atom    14   D =       0.00000000 cm^2/s
     atom    15   D =       0.00000000 cm^2/s
     atom    16   D =       0.00000000 cm^2/s
     atom    17   D =       0.00000000 cm^2/s
     atom    18   D =       0.00000000 cm^2/s
     atom    19   D =       0.00000001 cm^2/s
     atom    20   D =       0.00000001 cm^2/s
     atom    21   D =       0.00000001 cm^2/s
     atom    22   D =       0.00000001 cm^2/s
     atom    23   D =       0.00591112 cm^2/s

     < D > =       0.00042223 cm^2/s

     Writing all to output data dir outdir/pwscf.save/

     General routines

     Parallel routines

   This run was terminated on:  10:18:47  11Jun2023

   JOB DONE.