     Program PWSCF v.7.2 starts on 11Jun2023 at  4:19:21

     Reading input from md_data/md_Hf5Nb2Ta10Zr5H_10steps_50eV_incident0_polar0.in
Warning: card &CELL ignored
Warning: card / ignored

     Current dimensions of program PWSCF are:
     Max number of different atomic species (ntypx) = 10
     Max number of k-points (npk) =  40000
     Max angular momentum in pseudopotentials (lmaxx) =  4

     File outdir/pwscf.update deleted, as requested

     File outdir/pwscf.md deleted, as requested

     gamma-point specific algorithms are used

     R & G space division:  proc/nbgrp/npool/nimage =      12
     Subspace diagonalization in iterative solution of the eigenvalue problem:
     one sub-group per band group will be used

     Using Slab Decomposition

     bravais-lattice index     =            0
     lattice parameter (alat)  =      13.8706  a.u.
     unit-cell volume          =    4363.8306 (a.u.)^3
     number of atoms/cell      =           23
     number of atomic types    =            5
     number of electrons       =       277.00
     number of Kohn-Sham states=          167
     kinetic-energy cutoff     =     120.0000  Ry
     charge density cutoff     =     480.0000  Ry
     scf convergence threshold =      1.0E-03
     mixing beta               =       0.7000
     number of iterations used =            8  TF        mixing
     energy convergence thresh.=      0.0E+00
     force convergence thresh. =      0.0E+00
     Exchange-correlation=  SLA  PW   PBX  PBC
                           (   1   4   3   4   0   0   0)
     nstep                     =           10

     celldm(1)=  13.870589  celldm(2)=   0.000000  celldm(3)=   0.000000
     celldm(4)=   0.000000  celldm(5)=   0.000000  celldm(6)=   0.000000

     crystal axes: (cart. coord. in units of alat)
               a(1) = (   1.000000   0.000000   0.000000 )
               a(2) = (   0.000000   1.182561   0.000000 )
               a(3) = (   0.000000   0.000000   1.382801 )

     reciprocal axes: (cart. coord. in units 2 pi/alat)
               b(1) = (  1.000000  0.000000  0.000000 )
               b(2) = (  0.000000  0.845622  0.000000 )
               b(3) = (  0.000000  0.000000  0.723170 )

     PseudoPot. # 1 for Hf read from file:
     q-e/pseudo/hf_pbe_v1.uspp.F.UPF
     MD5 check sum: 8ee9378dfe14276e333edf04c5e4aa26
     Pseudo is Ultrasoft + core correction, Zval = 12.0
     Generated by new atomic code, or converted to UPF format
     Using radial grid of  921 points,  8 beta functions with:
                l(1) =   0
                l(2) =   0
                l(3) =   0
                l(4) =   1
                l(5) =   1
                l(6) =   2
                l(7) =   2
                l(8) =   3
     Q(r) pseudized with  6 coefficients,  rinner =    1.200   1.200   1.200
                                                       1.200   1.200   1.200
                                                       1.200

     PseudoPot. # 2 for Nb read from file:
     q-e/pseudo/nb_pbe_v1.uspp.F.UPF
     MD5 check sum: 573aab8a2fa660278ed4a62cd769473f
     Pseudo is Ultrasoft + core correction, Zval = 13.0
     Generated by new atomic code, or converted to UPF format
     Using radial grid of  887 points,  6 beta functions with:
                l(1) =   0
                l(2) =   0
                l(3) =   1
                l(4) =   1
                l(5) =   2
                l(6) =   2
     Q(r) pseudized with  6 coefficients,  rinner =    1.000   1.000   1.000
                                                       1.000   1.000

     PseudoPot. # 3 for Ta read from file:
     q-e/pseudo/ta_pbe_v1.uspp.F.UPF
     MD5 check sum: f8bbe9446314a3b8ea5d9f3e3836c939
     Pseudo is Ultrasoft + core correction, Zval = 13.0
     Generated by new atomic code, or converted to UPF format
     Using radial grid of  921 points,  7 beta functions with:
                l(1) =   0
                l(2) =   0
                l(3) =   1
                l(4) =   1
                l(5) =   2
                l(6) =   2
                l(7) =   3
     Q(r) pseudized with  6 coefficients,  rinner =    1.300   1.300   1.300
                                                       1.300   1.300   1.300
                                                       1.300

     PseudoPot. # 4 for Zr read from file:
     q-e/pseudo/zr_pbe_v1.uspp.F.UPF
     MD5 check sum: 5db81b1e868ab7776c4564c113de050b
     Pseudo is Ultrasoft + core correction, Zval = 12.0
     Generated by new atomic code, or converted to UPF format
     Using radial grid of  887 points,  6 beta functions with:
                l(1) =   0
                l(2) =   0
                l(3) =   1
                l(4) =   1
                l(5) =   2
                l(6) =   2
     Q(r) pseudized with  6 coefficients,  rinner =    1.200   1.200   1.200
                                                       1.200   1.200

     PseudoPot. # 5 for H  read from file:
     q-e/pseudo/h_pbe_v1.4.uspp.F.UPF
     MD5 check sum: 761ae9a214b05c3daf00ab9f6b793d6f
     Pseudo is Ultrasoft, Zval =  1.0
     Generated by new atomic code, or converted to UPF format
     Using radial grid of  615 points,  2 beta functions with:
                l(1) =   0
                l(2) =   0
     Q(r) pseudized with  8 coefficients,  rinner =    0.700

     atomic species   valence    mass     pseudopotential
        Hf            12.00   178.49000     Hf( 1.00)
        Nb            13.00    92.90637     Nb( 1.00)
        Ta            13.00   180.94788     Ta( 1.00)
        Zr            12.00    91.22400     Zr( 1.00)
        H              1.00     2.01400     H ( 1.00)

     Starting magnetic structure
     atomic species   magnetization
        Hf           0.000
        Nb           0.000
        Ta           0.000
        Zr           0.000
        H            0.000

     No symmetry found

   Cartesian axes

     site n.     atom                  positions (alat units)
         1           Hf  tau(   1) = (   0.3637602   0.3851666   0.8997227  )
         2           Hf  tau(   2) = (   0.1707072   0.1752431   0.6891644  )
         3           Hf  tau(   3) = (   0.1710473   1.0067854   0.6931973  )
         4           Hf  tau(   4) = (   0.5568133   0.1752431   0.6891644  )
         5           Hf  tau(   5) = (   0.5564732   1.0067854   0.6931973  )
         6           Nb  tau(   6) = (   0.3637602   0.3810532   0.4789623  )
         7           Nb  tau(   7) = (   0.3637602   0.8005966   0.9039507  )
         8           Ta  tau(   8) = (   0.1647647   0.5914071   0.6908891  )
         9           Ta  tau(   9) = (   0.5627557   0.5914071   0.6908891  )
        10           Ta  tau(  10) = (   0.1780998   0.1790358   0.2804876  )
        11           Ta  tau(  11) = (   0.1774916   0.1782549   1.1028038  )
        12           Ta  tau(  12) = (   0.1776580   1.0048810   0.2787789  )
        13           Ta  tau(  13) = (   0.1781622   1.0034173   1.1016352  )
        14           Ta  tau(  14) = (   0.5494206   0.1790358   0.2804876  )
        15           Ta  tau(  15) = (   0.5500289   0.1782549   1.1028038  )
        16           Ta  tau(  16) = (   0.5498625   1.0048810   0.2787789  )
        17           Ta  tau(  17) = (   0.5493582   1.0034173   1.1016352  )
        18           Zr  tau(  18) = (   0.3637602   0.7992215   0.4805700  )
        19           Zr  tau(  19) = (   0.1694598   0.5888390   0.2724796  )
        20           Zr  tau(  20) = (   0.1689898   0.5932048   1.1103210  )
        21           Zr  tau(  21) = (   0.5580607   0.5888390   0.2724796  )
        22           Zr  tau(  22) = (   0.5585306   0.5932048   1.1103210  )
        23           H   tau(  23) = (   0.6989955   0.5912807   0.6910327  )

     number of k points=     1  Gaussian smearing, width (Ry)=  0.0220
                       cart. coord. in units 2pi/alat
        k(    1) = (   0.0000000   0.0000000   0.0000000), wk =   1.0000000

     Check: negative core charge=   -0.000002
     Generating pointlists ...
     new r_m :   0.1421 (alat units)  1.9717 (a.u.) for type    1
     new r_m :   0.1397 (alat units)  1.9374 (a.u.) for type    2
     new r_m :   0.0562 (alat units)  0.7795 (a.u.) for type    3
     new r_m :   0.1415 (alat units)  1.9625 (a.u.) for type    4
     new r_m :   0.0562 (alat units)  0.7795 (a.u.) for type    5

     Initial potential from superposition of free atoms

     starting charge     266.9726, renormalised to     277.0000

     negative rho (up, down):  9.202E-01 9.202E-01
     Starting wfcs are  287 randomized atomic wfcs

     Self-consistent Calculation

     iteration #  1     ecut=   120.00 Ry     beta= 0.70
     Davidson diagonalization with overlap
     ethr =  1.00E-02,  avg # of iterations =  3.0

     negative rho (up, down):  9.523E-01 9.523E-01

     total energy              =   -2932.99768458 Ry
     estimated scf accuracy    <     321.72424075 Ry

     total magnetization       =     0.00 Bohr mag/cell
     absolute magnetization    =     0.08 Bohr mag/cell

[...]

     Magnetic moment per site  (integrated on atomic sphere of radius R)
     atom   1 (R=0.142)  charge=  9.4636   -0.0002
     atom   2 (R=0.142)  charge=  9.0584   -0.0001
     atom   3 (R=0.142)  charge=  9.0592   -0.0002
     atom   4 (R=0.142)  charge=  9.0571    0.0000
     atom   5 (R=0.142)  charge=  9.0583   -0.0001
     atom   6 (R=0.140)  charge= 10.3564    0.0000
     atom   7 (R=0.140)  charge= 10.3540   -0.0001
     atom   8 (R=0.056)  charge=  1.3451   -0.0000
     atom   9 (R=0.056)  charge=  1.3616   -0.0000
     atom  10 (R=0.056)  charge=  1.3417   -0.0000
     atom  11 (R=0.056)  charge=  1.3410    0.0001
     atom  12 (R=0.056)  charge=  1.3413    0.0000
     atom  13 (R=0.056)  charge=  1.3414    0.0000
     atom  14 (R=0.056)  charge=  1.3427   -0.0000
     atom  15 (R=0.056)  charge=  1.3426    0.0000
     atom  16 (R=0.056)  charge=  1.3412   -0.0000
     atom  17 (R=0.056)  charge=  1.3424   -0.0000
     atom  18 (R=0.141)  charge=  9.4600   -0.0002
     atom  19 (R=0.141)  charge=  9.0010   -0.0021
     atom  20 (R=0.141)  charge=  8.9985    0.0007
     atom  21 (R=0.141)  charge=  8.9987   -0.0017
     atom  22 (R=0.141)  charge=  8.9973    0.0010
     atom  23 (R=0.056)  charge=  0.7591   -0.0000

     End of self-consistent calculation

 ------ SPIN UP ------------

          k = 0.0000 0.0000 0.0000 ( 48454 PWs)   bands (ev):

   -57.8511 -57.8486 -57.8048 -57.8028 -57.7939 -57.7667 -57.7627 -57.7230
   -57.7185 -57.4775 -51.3889 -51.3429 -51.2648 -51.2195 -49.6960 -43.2129
   -43.1933 -38.5834 -38.5713 -38.4856 -38.4809 -36.7957 -26.1338 -24.8504
   -24.8479 -24.7653 -24.7601 -24.6783 -24.6680 -24.6065 -24.5468 -24.5354
   -24.3818 -24.3720 -24.3497 -24.3188 -24.3109 -24.2744 -24.2618 -24.2569
   -24.2042 -24.1967 -24.0343 -24.0330 -24.0241 -24.0123 -23.9585 -23.9509
   -23.9346 -23.9337 -23.7125 -23.6302 -21.1795 -20.9715 -20.6508 -20.5722
   -20.3084 -20.1661 -20.1396 -20.0427 -19.9352 -19.8551 -19.8461 -19.6254
   -19.4740 -19.4121 -19.3587 -19.3176 -19.2549 -19.2063 -18.7652 -18.6856
   -18.6389 -17.1437 -16.8266 -16.8149 -16.7688 -16.5815 -16.5728 -16.5652
[...]
     9.4209   9.4661   9.5331   9.8192   9.8610   9.9501  10.0313  10.1223
    10.1769  10.1982  10.3605  10.4052  10.4213  10.5161  10.5407  10.5698
    10.6527  10.8298  10.8440  10.9220  11.0019  11.0333  11.1368  11.2305
    11.2784  11.3214  11.3455  11.4051  11.6004  11.7686  11.8137  11.8397
    11.9369  12.0196  12.1846  12.1935  12.2062  12.2261  12.2326

     the Fermi energy is    10.3036 ev

!    total energy              =   -2942.65785564 Ry
     estimated scf accuracy    <       0.00015298 Ry
     smearing contrib. (-TS)   =      -0.09868115 Ry
     internal energy E=F+TS    =   -2942.55917449 Ry

     total magnetization       =    -0.00 Bohr mag/cell
     absolute magnetization    =     0.00 Bohr mag/cell

     convergence has been achieved in   5 iterations

     negative rho (up, down):  9.065E-01 9.065E-01

     Forces acting on atoms (cartesian axes, Ry/au):

     atom    1 type  1   force =    -0.00175240   -0.02686555    0.02282565
     atom    2 type  1   force =    -0.12901175   -0.01605115    0.00185780
     atom    3 type  1   force =    -0.12654731    0.01308078    0.00675801
     atom    4 type  1   force =     0.13132981   -0.01695798    0.00143658
     atom    5 type  1   force =     0.12898706    0.01414497    0.00714196
     atom    6 type  2   force =    -0.00328600   -0.01855843   -0.00888269
     atom    7 type  2   force =    -0.00355557    0.01721472    0.01062745
     atom    8 type  3   force =    -0.15360556    0.00322608   -0.00236162
     atom    9 type  3   force =    -1.27288806    0.00319944   -0.00576125
     atom   10 type  3   force =    -0.03227702   -0.02274645   -0.06011902
     atom   11 type  3   force =    -0.03542522   -0.03006831    0.05664617
     atom   12 type  3   force =    -0.02912740    0.02917592   -0.05870059
     atom   13 type  3   force =    -0.02750932    0.02399464    0.05572014
     atom   14 type  3   force =     0.03122311   -0.02078938   -0.05879174
     atom   15 type  3   force =     0.03436599   -0.02770036    0.05454719
     atom   16 type  3   force =     0.02802534    0.02671561   -0.05632555
     atom   17 type  3   force =     0.02655891    0.02183989    0.05431569
     atom   18 type  4   force =    -0.00196031    0.02706511   -0.02322072
     atom   19 type  4   force =    -0.14329874   -0.00349411   -0.12010279
     atom   20 type  4   force =    -0.14899549    0.00448749    0.11971804
     atom   21 type  4   force =     0.14351755   -0.00422142   -0.12237950
     atom   22 type  4   force =     0.14936098    0.00538715    0.12189434
     atom   23 type  5   force =     1.43587137   -0.00207868    0.00315648
     The non-local contrib.  to forces
     atom    1 type  1   force =     0.00036315   -0.00669902    0.03698918
     atom    2 type  1   force =    -0.24509270   -0.16098963    0.01966997
     atom    3 type  1   force =    -0.24096304    0.15596954   -0.02982871
     atom    4 type  1   force =     0.25000768   -0.15979992    0.01930512
     atom    5 type  1   force =     0.24658929    0.15427532   -0.02987974
     atom    6 type  2   force =    -0.00542541   -0.08100924   -0.06485278
     atom    7 type  2   force =    -0.00623747    0.09374384    0.05842478
     atom    8 type  3   force =    -0.28667334   -0.00134370   -0.00231607
     atom    9 type  3   force =     0.59801569   -0.00108022   -0.00356637
     atom   10 type  3   force =    -0.22664937    0.00973460   -0.22086735
     atom   11 type  3   force =    -0.22925822    0.01028945    0.21347884
     atom   12 type  3   force =    -0.21178646   -0.02450668   -0.19564511
     atom   13 type  3   force =    -0.21972703   -0.01030669    0.21667040
     atom   14 type  3   force =     0.22749647    0.00983882   -0.22210404
     atom   15 type  3   force =     0.23136590    0.01076766    0.21412686
     atom   16 type  3   force =     0.21363567   -0.02507535   -0.19555756
     atom   17 type  3   force =     0.22026700   -0.01073398    0.21803548
     atom   18 type  4   force =    -0.00460346    0.09470596   -0.07257650
     atom   19 type  4   force =     0.08211055    0.00163272    0.05047279
     atom   20 type  4   force =     0.07724359   -0.00108720   -0.04681029
     atom   21 type  4   force =    -0.08091169    0.00144972    0.05185290
     atom   22 type  4   force =    -0.07634014   -0.00052191   -0.04817063
     atom   23 type  5   force =    -0.19297598    0.00022839   -0.00007993
     The ionic contribution  to forces
     atom    1 type  1   force =    -0.26837761   -4.84393818   15.06169482
     atom    2 type  1   force =   -27.77882800   -6.33863109    0.78125340
     atom    3 type  1   force =   -27.77511872    6.32353318   -0.71361170
     atom    4 type  1   force =    27.64812434   -6.59615766    0.77985028
     atom    5 type  1   force =    27.64356587    6.58164324   -0.71206749
     atom    6 type  2   force =    -0.28159581   -3.81243868  -15.04572759
     atom    7 type  2   force =    -0.28180286    3.84966164   15.08016760
     atom    8 type  3   force =   -38.41880342    0.07453645   -0.06843701
     atom    9 type  3   force =    32.76295816    0.08236171   -0.07933341
     atom   10 type  3   force =   -24.82519088   -2.16733917  -24.63423443
     atom   11 type  3   force =   -23.89797433   -0.90085963   23.63009152
     atom   12 type  3   force =   -24.02263671    0.84705975  -23.67747006
     atom   13 type  3   force =   -24.80550621    2.25471081   24.61637581
     atom   14 type  3   force =    24.78035528   -2.22230414  -24.70028786
     atom   15 type  3   force =    23.85383597   -0.95531454   23.69570623
     atom   16 type  3   force =    23.97870845    0.90115262  -23.74273102
     atom   17 type  3   force =    24.76059982    2.30974248   24.68245204
     atom   18 type  4   force =    -0.26382121    4.60739042  -14.92205568
     atom   19 type  4   force =   -25.04710205    0.97349368  -27.14403307
     atom   20 type  4   force =   -25.00318019   -0.96781432   27.12357607
     atom   21 type  4   force =    24.92690480    0.97184787  -27.41506196
     atom   22 type  4   force =    24.88405207   -0.96654663   27.39406581
     atom   23 type  5   force =     7.43083325   -0.00578982    0.00981770
     The local contribution  to forces
     atom    1 type  1   force =     0.26486356    4.81181448  -15.06204837
     atom    2 type  1   force =    27.90803923    6.48272014   -0.78780327
     atom    3 type  1   force =    27.90344294   -6.46697263    0.76500839
     atom    4 type  1   force =   -27.78033061    6.73769232   -0.78650998
     atom    5 type  1   force =   -27.77539206   -6.72182863    0.76405647
     atom    6 type  2   force =     0.28281922    3.87162713   15.10622769
     atom    7 type  2   force =     0.28356870   -3.91596318  -15.11153441
     atom    8 type  3   force =    38.58073695   -0.06954100    0.08022894
     atom    9 type  3   force =   -34.66714794   -0.07688486    0.08854669
     atom   10 type  3   force =    25.04659335    2.13205673   24.80784614
     atom   11 type  3   force =    24.11666650    0.84927530  -23.80457277
     atom   12 type  3   force =    24.23167091   -0.78988501   23.82680259
     atom   13 type  3   force =    25.02133679   -2.21143890  -24.79500976
     atom   14 type  3   force =   -25.00413032    2.18840223   24.87623329
     atom   15 type  3   force =   -24.07612282    0.90510724  -23.87265113
     atom   16 type  3   force =   -24.19097094   -0.84535777   23.89403582
     atom   17 type  3   force =   -24.97831088   -2.26786320  -24.86366943
     atom   18 type  4   force =     0.26548297   -4.67033676   14.97476647
     atom   19 type  4   force =    24.83683734   -0.97895893   26.97880390
     atom   20 type  4   force =    24.78629460    0.97428814  -26.96484741
     atom   21 type  4   force =   -24.71762150   -0.97783754   27.24467349
     atom   22 type  4   force =   -24.66754087    0.97352334  -27.23047014
     atom   23 type  5   force =    -5.80144028    0.00348866   -0.00442121
     The core correction contribution to forces
     atom    1 type  1   force =     0.00076595    0.00736292   -0.00198498
     atom    2 type  1   force =    -0.01209399   -0.00011387    0.00123441
     atom    3 type  1   force =    -0.01246218    0.00077721   -0.00214304
     atom    4 type  1   force =     0.01243127   -0.00076407    0.00132268
     atom    5 type  1   force =     0.01279110    0.00138624   -0.00226358
     atom    6 type  2   force =     0.00029246    0.00381424    0.00235591
     atom    7 type  2   force =     0.00032544   -0.00449622   -0.00173982
     atom    8 type  3   force =    -0.03204629    0.00050624   -0.00062407
     atom    9 type  3   force =     0.03558021   -0.00034640   -0.00021312
     atom   10 type  3   force =    -0.02419169    0.00638299   -0.01642589
     atom   11 type  3   force =    -0.02546650    0.00749168    0.01706673
     atom   12 type  3   force =    -0.02373681   -0.00724191   -0.01573254
     atom   13 type  3   force =    -0.02352825   -0.00591847    0.01642625
     atom   14 type  3   force =     0.02500012    0.00674934   -0.01603566
     atom   15 type  3   force =     0.02616083    0.00802525    0.01665054
     atom   16 type  3   force =     0.02442755   -0.00780431   -0.01527451
     atom   17 type  3   force =     0.02424681   -0.00639193    0.01597097
     atom   18 type  4   force =     0.00028322   -0.00522161    0.00351062
     atom   19 type  4   force =    -0.01050569    0.00053499   -0.00818944
     atom   20 type  4   force =    -0.01039876   -0.00036930    0.00809948
     atom   21 type  4   force =     0.01058782    0.00055052   -0.00824089
     atom   22 type  4   force =     0.01049593   -0.00039761    0.00814636
     atom   23 type  5   force =     0.00000000    0.00000000    0.00000000
     The Hubbard contrib.    to forces
     atom    1 type  1   force =     0.00000000    0.00000000    0.00000000
     atom    2 type  1   force =     0.00000000    0.00000000    0.00000000
     atom    3 type  1   force =     0.00000000    0.00000000    0.00000000
     atom    4 type  1   force =     0.00000000    0.00000000    0.00000000
     atom    5 type  1   force =     0.00000000    0.00000000    0.00000000
     atom    6 type  2   force =     0.00000000    0.00000000    0.00000000
     atom    7 type  2   force =     0.00000000    0.00000000    0.00000000
     atom    8 type  3   force =     0.00000000    0.00000000    0.00000000
     atom    9 type  3   force =     0.00000000    0.00000000    0.00000000
     atom   10 type  3   force =     0.00000000    0.00000000    0.00000000
     atom   11 type  3   force =     0.00000000    0.00000000    0.00000000
     atom   12 type  3   force =     0.00000000    0.00000000    0.00000000
     atom   13 type  3   force =     0.00000000    0.00000000    0.00000000
     atom   14 type  3   force =     0.00000000    0.00000000    0.00000000
     atom   15 type  3   force =     0.00000000    0.00000000    0.00000000
     atom   16 type  3   force =     0.00000000    0.00000000    0.00000000
     atom   17 type  3   force =     0.00000000    0.00000000    0.00000000
     atom   18 type  4   force =     0.00000000    0.00000000    0.00000000
     atom   19 type  4   force =     0.00000000    0.00000000    0.00000000
     atom   20 type  4   force =     0.00000000    0.00000000    0.00000000
     atom   21 type  4   force =     0.00000000    0.00000000    0.00000000
     atom   22 type  4   force =     0.00000000    0.00000000    0.00000000
     atom   23 type  5   force =     0.00000000    0.00000000    0.00000000
     The SCF correction term to forces
     atom    1 type  1   force =     0.00000000    0.00000000   -0.00000000
     atom    2 type  1   force =    -0.00000000    0.00000000   -0.00000000
     atom    3 type  1   force =    -0.00000000   -0.00000000   -0.00000000
     atom    4 type  1   force =     0.00000000    0.00000000   -0.00000000
     atom    5 type  1   force =     0.00000000   -0.00000000   -0.00000000
     atom    6 type  2   force =     0.00000000   -0.00000000   -0.00000000
     atom    7 type  2   force =     0.00000000   -0.00000000   -0.00000000
     atom    8 type  3   force =     0.00000000   -0.00000000   -0.00000000
     atom    9 type  3   force =    -0.00000000   -0.00000000   -0.00000000
     atom   10 type  3   force =    -0.00281389   -0.00362556    0.00452417
     atom   11 type  3   force =     0.00063188    0.00369093    0.00154349
     atom   12 type  3   force =    -0.00261379    0.00370582    0.00430618
     atom   13 type  3   force =    -0.00006007   -0.00309607    0.00221909
     atom   14 type  3   force =     0.00252612   -0.00351960    0.00436418
     atom   15 type  3   force =    -0.00084934    0.00367007    0.00167634
     atom   16 type  3   force =     0.00224916    0.00375645    0.00416338
     atom   17 type  3   force =    -0.00021930   -0.00295744    0.00248829
     atom   18 type  4   force =     0.00072272    0.00048315   -0.00590398
     atom   19 type  4   force =    -0.00461434   -0.00024053    0.00380468
     atom   20 type  4   force =     0.00106982   -0.00057380    0.00066184
     atom   21 type  4   force =     0.00458268   -0.00027596    0.00535862
     atom   22 type  4   force =    -0.00128147   -0.00071399   -0.00071541
     atom   23 type  5   force =    -0.00052107   -0.00004986   -0.00119843

     Total force =     1.498681     Total SCF correction =     0.018584

     Entering Dynamics:    iteration =    10
                           time      =   0.0020 pico-seconds

ATOMIC_POSITIONS (angstrom)
Hf            2.6699999570        2.8271230292        6.6039642186    0   0   0
Hf            1.2529906802        1.2862841814        5.0584662261    0   0   0
Hf            1.2554868986        7.3898042948        5.0880677674    0   0   0
Hf            4.0870092338        1.2862841814        5.0584662261    0   0   0
Hf            4.0845130154        7.3898042948        5.0880677674    0   0   0
Nb            2.6699999570        2.7969306055        3.5155832167    0   0   0
Nb            2.6699999570        5.8763786763        6.6349979432    0   0   0
Ta            1.2093730560        4.3409278516        5.0711258323    0   0   0
Ta            4.1306268580        4.3409278516        5.0711258323    0   0   0
Ta            1.3071584540        1.3140556733        2.0586145457
Ta            1.3026869695        1.3083075332        8.0947389540
Ta            1.3039241920        7.3759102801        2.0460786358
Ta            1.3076316005        7.3651499196        8.0861606082
Ta            4.0328358532        1.3140645277        2.0586172793
Ta            4.0373094898        1.3083152810        8.0947364349
Ta            4.0360723256        7.3759022086        2.0460819768
Ta            4.0323634231        7.3651410006        8.0861577958
Zr            2.6700174519        5.8664403463        3.5272464358
Zr            1.2430094078        4.3220540410        1.9993308651
Zr            1.2395384646        4.3541495653        8.1504312603
Zr            4.0969932299        4.3220510293        1.9993271655
Zr            4.1004648584        4.3541540151        8.1504350847
H             5.3204448719        4.3392309528        5.0735353544

     kinetic energy (Ekin) =           1.27416988 Ry
     temperature           =        9579.78631013 K
     Ekin + Etot (const)   =       -2941.38368576 Ry

     The maximum number of steps has been reached.

     End of molecular dynamics calculation

     diffusion coefficients :
     atom     1   D =       0.00000000 cm^2/s
     atom     2   D =       0.00000000 cm^2/s
     atom     3   D =       0.00000000 cm^2/s
     atom     4   D =       0.00000000 cm^2/s
     atom     5   D =       0.00000000 cm^2/s
     atom     6   D =       0.00000000 cm^2/s
     atom     7   D =       0.00000000 cm^2/s
     atom     8   D =       0.00000000 cm^2/s
     atom     9   D =       0.00000000 cm^2/s
     atom    10   D =       0.00000000 cm^2/s
     atom    11   D =       0.00000000 cm^2/s
     atom    12   D =       0.00000000 cm^2/s
     atom    13   D =       0.00000000 cm^2/s
     atom    14   D =       0.00000000 cm^2/s
     atom    15   D =       0.00000000 cm^2/s
     atom    16   D =       0.00000000 cm^2/s
     atom    17   D =       0.00000000 cm^2/s
     atom    18   D =       0.00000000 cm^2/s
     atom    19   D =       0.00000001 cm^2/s
     atom    20   D =       0.00000001 cm^2/s
     atom    21   D =       0.00000001 cm^2/s
     atom    22   D =       0.00000001 cm^2/s
     atom    23   D =       0.00029557 cm^2/s

     < D > =       0.00002111 cm^2/s

     Writing all to output data dir outdir/pwscf.save/

     General routines

     Parallel routines

   This run was terminated on:   4:59:53  11Jun2023

   JOB DONE.