     Program PWSCF v.7.2 starts on 11Jun2023 at  9: 0:22

     Reading input from md_data/md_Hf5Nb2Ta10Zr5H_10steps_100eV_incident45_polar0.in
Warning: card &CELL ignored
Warning: card / ignored

     Current dimensions of program PWSCF are:
     Max number of different atomic species (ntypx) = 10
     Max number of k-points (npk) =  40000
     Max angular momentum in pseudopotentials (lmaxx) =  4

     File outdir/pwscf.md deleted, as requested

     gamma-point specific algorithms are used

     R & G space division:  proc/nbgrp/npool/nimage =      12
     Subspace diagonalization in iterative solution of the eigenvalue problem:
     one sub-group per band group will be used

     Using Slab Decomposition

     bravais-lattice index     =            0
     lattice parameter (alat)  =      13.8706  a.u.
     unit-cell volume          =    4363.8306 (a.u.)^3
     number of atoms/cell      =           23
     number of atomic types    =            5
     number of electrons       =       277.00
     number of Kohn-Sham states=          167
     kinetic-energy cutoff     =     120.0000  Ry
     charge density cutoff     =     480.0000  Ry
     scf convergence threshold =      1.0E-03
     mixing beta               =       0.7000
     number of iterations used =            8  TF        mixing
     energy convergence thresh.=      0.0E+00
     force convergence thresh. =      0.0E+00
     Exchange-correlation=  SLA  PW   PBX  PBC
                           (   1   4   3   4   0   0   0)
     nstep                     =           10

     celldm(1)=  13.870589  celldm(2)=   0.000000  celldm(3)=   0.000000
     celldm(4)=   0.000000  celldm(5)=   0.000000  celldm(6)=   0.000000

     crystal axes: (cart. coord. in units of alat)
               a(1) = (   1.000000   0.000000   0.000000 )
               a(2) = (   0.000000   1.182561   0.000000 )
               a(3) = (   0.000000   0.000000   1.382801 )

     reciprocal axes: (cart. coord. in units 2 pi/alat)
               b(1) = (  1.000000  0.000000  0.000000 )
               b(2) = (  0.000000  0.845622  0.000000 )
               b(3) = (  0.000000  0.000000  0.723170 )

     PseudoPot. # 1 for Hf read from file:
     q-e/pseudo/hf_pbe_v1.uspp.F.UPF
     MD5 check sum: 8ee9378dfe14276e333edf04c5e4aa26
     Pseudo is Ultrasoft + core correction, Zval = 12.0
     Generated by new atomic code, or converted to UPF format
     Using radial grid of  921 points,  8 beta functions with:
                l(1) =   0
                l(2) =   0
                l(3) =   0
                l(4) =   1
                l(5) =   1
                l(6) =   2
                l(7) =   2
                l(8) =   3
     Q(r) pseudized with  6 coefficients,  rinner =    1.200   1.200   1.200
                                                       1.200   1.200   1.200
                                                       1.200

     PseudoPot. # 2 for Nb read from file:
     q-e/pseudo/nb_pbe_v1.uspp.F.UPF
     MD5 check sum: 573aab8a2fa660278ed4a62cd769473f
     Pseudo is Ultrasoft + core correction, Zval = 13.0
     Generated by new atomic code, or converted to UPF format
     Using radial grid of  887 points,  6 beta functions with:
                l(1) =   0
                l(2) =   0
                l(3) =   1
                l(4) =   1
                l(5) =   2
                l(6) =   2
     Q(r) pseudized with  6 coefficients,  rinner =    1.000   1.000   1.000
                                                       1.000   1.000

     PseudoPot. # 3 for Ta read from file:
     q-e/pseudo/ta_pbe_v1.uspp.F.UPF
     MD5 check sum: f8bbe9446314a3b8ea5d9f3e3836c939
     Pseudo is Ultrasoft + core correction, Zval = 13.0
     Generated by new atomic code, or converted to UPF format
     Using radial grid of  921 points,  7 beta functions with:
                l(1) =   0
                l(2) =   0
                l(3) =   1
                l(4) =   1
                l(5) =   2
                l(6) =   2
                l(7) =   3
     Q(r) pseudized with  6 coefficients,  rinner =    1.300   1.300   1.300
                                                       1.300   1.300   1.300
                                                       1.300

     PseudoPot. # 4 for Zr read from file:
     q-e/pseudo/zr_pbe_v1.uspp.F.UPF
     MD5 check sum: 5db81b1e868ab7776c4564c113de050b
     Pseudo is Ultrasoft + core correction, Zval = 12.0
     Generated by new atomic code, or converted to UPF format
     Using radial grid of  887 points,  6 beta functions with:
                l(1) =   0
                l(2) =   0
                l(3) =   1
                l(4) =   1
                l(5) =   2
                l(6) =   2
     Q(r) pseudized with  6 coefficients,  rinner =    1.200   1.200   1.200
                                                       1.200   1.200

     PseudoPot. # 5 for H  read from file:
     q-e/pseudo/h_pbe_v1.4.uspp.F.UPF
     MD5 check sum: 761ae9a214b05c3daf00ab9f6b793d6f
     Pseudo is Ultrasoft, Zval =  1.0
     Generated by new atomic code, or converted to UPF format
     Using radial grid of  615 points,  2 beta functions with:
                l(1) =   0
                l(2) =   0
     Q(r) pseudized with  8 coefficients,  rinner =    0.700

     atomic species   valence    mass     pseudopotential
        Hf            12.00   178.49000     Hf( 1.00)
        Nb            13.00    92.90637     Nb( 1.00)
        Ta            13.00   180.94788     Ta( 1.00)
        Zr            12.00    91.22400     Zr( 1.00)
        H              1.00     2.01400     H ( 1.00)

     Starting magnetic structure
     atomic species   magnetization
        Hf           0.000
        Nb           0.000
        Ta           0.000
        Zr           0.000
        H            0.000

     No symmetry found

   Cartesian axes

     site n.     atom                  positions (alat units)
         1           Hf  tau(   1) = (   0.3637602   0.3851666   0.8997227  )
         2           Hf  tau(   2) = (   0.1707072   0.1752431   0.6891644  )
         3           Hf  tau(   3) = (   0.1710473   1.0067854   0.6931973  )
         4           Hf  tau(   4) = (   0.5568133   0.1752431   0.6891644  )
         5           Hf  tau(   5) = (   0.5564732   1.0067854   0.6931973  )
         6           Nb  tau(   6) = (   0.3637602   0.3810532   0.4789623  )
         7           Nb  tau(   7) = (   0.3637602   0.8005966   0.9039507  )
         8           Ta  tau(   8) = (   0.1647647   0.5914071   0.6908891  )
         9           Ta  tau(   9) = (   0.5627557   0.5914071   0.6908891  )
        10           Ta  tau(  10) = (   0.1780998   0.1790358   0.2804876  )
        11           Ta  tau(  11) = (   0.1774916   0.1782549   1.1028038  )
        12           Ta  tau(  12) = (   0.1776580   1.0048810   0.2787789  )
        13           Ta  tau(  13) = (   0.1781622   1.0034173   1.1016352  )
        14           Ta  tau(  14) = (   0.5494206   0.1790358   0.2804876  )
        15           Ta  tau(  15) = (   0.5500289   0.1782549   1.1028038  )
        16           Ta  tau(  16) = (   0.5498625   1.0048810   0.2787789  )
        17           Ta  tau(  17) = (   0.5493582   1.0034173   1.1016352  )
        18           Zr  tau(  18) = (   0.3637602   0.7992215   0.4805700  )
        19           Zr  tau(  19) = (   0.1694598   0.5888390   0.2724796  )
        20           Zr  tau(  20) = (   0.1689898   0.5932048   1.1103210  )
        21           Zr  tau(  21) = (   0.5580607   0.5888390   0.2724796  )
        22           Zr  tau(  22) = (   0.5585306   0.5932048   1.1103210  )
        23           H   tau(  23) = (   0.6590918   0.6876167   0.6910327  )

     number of k points=     1  Gaussian smearing, width (Ry)=  0.0220
                       cart. coord. in units 2pi/alat
        k(    1) = (   0.0000000   0.0000000   0.0000000), wk =   1.0000000

     Check: negative core charge=   -0.000002
     Generating pointlists ...
     new r_m :   0.1383 (alat units)  1.9183 (a.u.) for type    1
     new r_m :   0.1397 (alat units)  1.9374 (a.u.) for type    2
     new r_m :   0.0562 (alat units)  0.7790 (a.u.) for type    3
     new r_m :   0.1415 (alat units)  1.9625 (a.u.) for type    4
     new r_m :   0.0562 (alat units)  0.7790 (a.u.) for type    5

     Initial potential from superposition of free atoms

     starting charge     266.9726, renormalised to     277.0000

     negative rho (up, down):  9.202E-01 9.202E-01
     Starting wfcs are  287 randomized atomic wfcs

     Self-consistent Calculation

     iteration #  1     ecut=   120.00 Ry     beta= 0.70
     Davidson diagonalization with overlap
     ethr =  1.00E-02,  avg # of iterations =  3.0

     negative rho (up, down):  9.508E-01 9.506E-01

     total energy              =   -2933.26354929 Ry
     estimated scf accuracy    <     320.07738183 Ry

     total magnetization       =     0.00 Bohr mag/cell
     absolute magnetization    =     0.08 Bohr mag/cell

[...]

     Magnetic moment per site  (integrated on atomic sphere of radius R)
     atom   1 (R=0.138)  charge=  9.2387   -0.0001
     atom   2 (R=0.138)  charge=  8.8798    0.0002
     atom   3 (R=0.138)  charge=  8.8810    0.0001
     atom   4 (R=0.138)  charge=  8.8842   -0.0000
     atom   5 (R=0.138)  charge=  8.8709   -0.0001
     atom   6 (R=0.140)  charge= 10.3532    0.0001
     atom   7 (R=0.140)  charge= 10.3490   -0.0000
     atom   8 (R=0.056)  charge=  1.3405   -0.0000
     atom   9 (R=0.056)  charge=  1.3566    0.0000
     atom  10 (R=0.056)  charge=  1.3376    0.0000
     atom  11 (R=0.056)  charge=  1.3370   -0.0000
     atom  12 (R=0.056)  charge=  1.3370   -0.0000
     atom  13 (R=0.056)  charge=  1.3371    0.0000
     atom  14 (R=0.056)  charge=  1.3384   -0.0000
     atom  15 (R=0.056)  charge=  1.3386    0.0000
     atom  16 (R=0.056)  charge=  1.3367   -0.0000
     atom  17 (R=0.056)  charge=  1.3380   -0.0000
     atom  18 (R=0.141)  charge=  9.4570   -0.0000
     atom  19 (R=0.141)  charge=  8.9970   -0.0011
     atom  20 (R=0.141)  charge=  8.9944   -0.0004
     atom  21 (R=0.141)  charge=  8.9995   -0.0010
     atom  22 (R=0.141)  charge=  8.9961   -0.0004
     atom  23 (R=0.056)  charge=  0.7692    0.0000

     End of self-consistent calculation

 ------ SPIN UP ------------

          k = 0.0000 0.0000 0.0000 ( 48454 PWs)   bands (ev):

   -57.8409 -57.8373 -57.7948 -57.7922 -57.7647 -57.7567 -57.7195 -57.7128
   -57.6211 -57.4150 -51.4144 -51.3673 -51.2853 -51.2289 -49.7397 -43.2368
   -43.2205 -38.6298 -38.6211 -38.5374 -38.5285 -36.8080 -25.9622 -24.8563
   -24.8508 -24.7686 -24.7670 -24.6538 -24.6455 -24.5410 -24.5157 -24.3920
   -24.3671 -24.3396 -24.3047 -24.2998 -24.2809 -24.2551 -24.2371 -24.1971
   -24.1912 -24.1498 -24.0299 -24.0194 -24.0139 -24.0118 -23.9642 -23.9524
   -23.9280 -23.9125 -23.6490 -23.6245 -21.1975 -20.9867 -20.6710 -20.5937
   -20.3238 -20.1861 -20.1666 -20.0606 -19.9523 -19.8812 -19.8634 -19.6429
   -19.4919 -19.4403 -19.3893 -19.3370 -19.2698 -19.2200 -18.8101 -18.7207
   -18.6690 -17.1867 -16.8823 -16.8582 -16.8196 -16.6272 -16.6105 -16.6084
[...]
    10.7248  10.7550  10.9189  10.9756  11.0165  11.0218  11.1901  11.2236
    11.2624  11.3728  11.3842  11.5754  11.7032  11.7737  11.7923  11.8114
    11.9960  12.0158  12.1056  12.1366  12.1910  12.1988  12.2077

     the Fermi energy is    10.2918 ev

!    total energy              =   -2943.17114971 Ry
     estimated scf accuracy    <       0.00066178 Ry
     smearing contrib. (-TS)   =      -0.09505637 Ry
     internal energy E=F+TS    =   -2943.07609334 Ry

     total magnetization       =    -0.00 Bohr mag/cell
     absolute magnetization    =     0.00 Bohr mag/cell

     convergence has been achieved in   4 iterations

     negative rho (up, down):  9.080E-01 9.080E-01

     Forces acting on atoms (cartesian axes, Ry/au):

     atom    1 type  1   force =     0.00288493   -0.02938331    0.01600582
     atom    2 type  1   force =    -0.13480672   -0.01481708    0.00473771
     atom    3 type  1   force =    -0.12632951    0.01211921    0.01224617
     atom    4 type  1   force =     0.14689060   -0.01156530    0.00185547
     atom    5 type  1   force =     0.06973752    0.26306426    0.02434644
     atom    6 type  2   force =     0.00737566   -0.02048401    0.00613872
     atom    7 type  2   force =    -0.01534863    0.01014481    0.01428491
     atom    8 type  3   force =    -0.12606275    0.00084408   -0.00103359
     atom    9 type  3   force =     0.09410384   -0.10721635   -0.00137061
     atom   10 type  3   force =    -0.03975665   -0.02037506   -0.06123577
     atom   11 type  3   force =    -0.04199775   -0.02707557    0.05243695
     atom   12 type  3   force =    -0.01975763    0.02757741   -0.06332040
     atom   13 type  3   force =    -0.02158476    0.02402345    0.05759641
     atom   14 type  3   force =     0.02946638   -0.02422690   -0.06268362
     atom   15 type  3   force =     0.03460195   -0.03150208    0.05429191
     atom   16 type  3   force =     0.02584555    0.03676422   -0.06410590
     atom   17 type  3   force =     0.02486046    0.03199213    0.05664500
     atom   18 type  4   force =    -0.01522403    0.01675712   -0.02304173
     atom   19 type  4   force =    -0.14129196   -0.00441707   -0.12442183
     atom   20 type  4   force =    -0.14681149    0.00607642    0.11811106
     atom   21 type  4   force =     0.13899751   -0.00544334   -0.12452561
     atom   22 type  4   force =     0.14629405    0.00206943    0.11845914
     atom   23 type  5   force =     0.10791345   -0.13492645   -0.01141666
     The non-local contrib.  to forces
     atom    1 type  1   force =    -0.00350103   -0.00415326    0.04503870
     atom    2 type  1   force =    -0.24712667   -0.16641885    0.01677085
     atom    3 type  1   force =    -0.24029049    0.15815482   -0.02287059
     atom    4 type  1   force =     0.24612962   -0.23983311    0.01710716
     atom    5 type  1   force =     0.19906731    0.17611144   -0.01615798
     atom    6 type  2   force =     0.00177370   -0.06207769   -0.05133951
     atom    7 type  2   force =     0.00268700    0.07381294    0.06391809
     atom    8 type  3   force =    -0.25964370    0.00557375   -0.00294100
     atom    9 type  3   force =     0.18454490    0.03190841   -0.00258769
     atom   10 type  3   force =    -0.24108683    0.01816212   -0.22272390
     atom   11 type  3   force =    -0.24863279    0.01846994    0.21629209
     atom   12 type  3   force =    -0.21368967   -0.03243529   -0.20198892
     atom   13 type  3   force =    -0.22666775   -0.01255725    0.22458047
     atom   14 type  3   force =     0.23850889    0.00742916   -0.21969198
     atom   15 type  3   force =     0.24484427    0.01187359    0.20828873
     atom   16 type  3   force =     0.22665941   -0.02558258   -0.19288500
     atom   17 type  3   force =     0.23230520   -0.00813389    0.21775716
     atom   18 type  4   force =     0.00200378    0.06776008   -0.06894613
     atom   19 type  4   force =     0.07060196    0.00044665    0.05995834
     atom   20 type  4   force =     0.06786789    0.00099318   -0.05684760
     atom   21 type  4   force =    -0.07686461   -0.00003115    0.04776727
     atom   22 type  4   force =    -0.07216983   -0.00270573   -0.04273677
     atom   23 type  5   force =    -0.02915133    0.01093805   -0.00287562
     The ionic contribution  to forces
     atom    1 type  1   force =    -0.12719559   -4.82191227   14.96000606
     atom    2 type  1   force =   -27.86166774   -6.12253219    0.78172370
     atom    3 type  1   force =   -28.02449367    6.40782761   -0.71164076
     atom    4 type  1   force =    27.79229742   -6.05953526    0.78109473
     atom    5 type  1   force =    27.23028041    9.06284677   -0.68045899
     atom    6 type  2   force =    -0.13358529   -3.78260551  -14.93591118
     atom    7 type  2   force =    -0.85558025    3.54922040   15.66880416
     atom    8 type  3   force =   -38.83499434   -0.20403016   -0.06744016
     atom    9 type  3   force =    38.22478098   -2.62181878   -0.06733572
     atom   10 type  3   force =   -24.86064588   -2.06014719  -24.61325361
     atom   11 type  3   force =   -23.93335700   -0.79381422   23.60924984
     atom   12 type  3   force =   -24.09666792    0.86733053  -23.76130625
     atom   13 type  3   force =   -24.88080347    2.27417250   24.70083161
     atom   14 type  3   force =    24.82482026   -2.04568494  -24.66000699
     atom   15 type  3   force =    23.89804936   -0.77914225   23.65587598
     atom   16 type  3   force =    23.98747180    0.99233402  -24.02343238
     atom   17 type  3   force =    24.76934698    2.40064262   24.96684872
     atom   18 type  4   force =    -0.80580355    4.32362154  -15.46958245
     atom   19 type  4   force =   -25.13201740    0.87616558  -27.10710002
     atom   20 type  4   force =   -25.08834294   -1.06645016   27.08741659
     atom   21 type  4   force =    25.05306048    0.76405064  -27.32160301
     atom   22 type  4   force =    25.00961508   -1.17792594   27.30499531
     atom   23 type  5   force =     3.84543227    0.01738666   -0.09777519
     The local contribution  to forces
     atom    1 type  1   force =     0.13132072    4.79164346  -14.97588754
     atom    2 type  1   force =    27.98542602    6.28019441   -0.76348079
     atom    3 type  1   force =    28.14201048   -6.56403470    0.78112131
     atom    4 type  1   force =   -27.90704107    6.30796027   -0.76540934
     atom    5 type  1   force =   -27.36530095   -8.97927858    0.75528422
     atom    6 type  2   force =     0.13550816    3.82683328   15.01570751
     atom    7 type  2   force =     0.82519849   -3.61324759  -15.69052167
     atom    8 type  3   force =    38.99989626    0.19955927    0.10191738
     atom    9 type  3   force =   -38.34388989    2.46416747    0.10243678
     atom   10 type  3   force =    25.08994976    2.01998545   24.77987444
     atom   11 type  3   force =    24.16266862    0.73488049  -23.79510465
     atom   12 type  3   force =    24.31359857   -0.80284695   23.90502727
     atom   13 type  3   force =    25.10499797   -2.22562461  -24.89088862
     atom   14 type  3   force =   -25.06568153    2.01882704   24.82457132
     atom   15 type  3   force =   -24.13394532    0.72660382  -23.83335342
     atom   16 type  3   force =   -24.22022223   -0.92759305   24.15120263
     atom   17 type  3   force =   -25.00155880   -2.35049429  -25.14505441
     atom   18 type  4   force =     0.77648495   -4.38310069   15.53093635
     atom   19 type  4   force =    24.93357259   -0.88305673   26.92707083
     atom   20 type  4   force =    24.87831845    1.07193431  -26.92922322
     atom   21 type  4   force =   -24.85430983   -0.77399551   27.14967208
     atom   22 type  4   force =   -24.79867963    1.18106130  -27.15689595
     atom   23 type  5   force =    -3.70979063   -0.16254136    0.09384249
     The core correction contribution to forces
     atom    1 type  1   force =     0.00008810    0.00370182    0.00219563
     atom    2 type  1   force =    -0.01221327   -0.00135824    0.00114697
     atom    3 type  1   force =    -0.00867450    0.00531237   -0.00183230
     atom    4 type  1   force =     0.01344846   -0.00786576    0.00094348
     atom    5 type  1   force =     0.00344798   -0.00318897   -0.00115409
     atom    6 type  2   force =    -0.00022727    0.00309582    0.00179631
     atom    7 type  2   force =     0.00028865   -0.00375385   -0.00250312
     atom    8 type  3   force =    -0.03033247   -0.00070285   -0.00027625
     atom    9 type  3   force =     0.01784785   -0.00402667   -0.00109800
     atom   10 type  3   force =    -0.02650013    0.00716707   -0.01576990
     atom   11 type  3   force =    -0.02795094    0.00770422    0.01667229
     atom   12 type  3   force =    -0.02378248   -0.00789218   -0.01578218
     atom   13 type  3   force =    -0.02446688   -0.00626651    0.01670674
     atom   14 type  3   force =     0.02586778    0.00575612   -0.01677779
     atom   15 type  3   force =     0.02722437    0.00750488    0.01676788
     atom   16 type  3   force =     0.02550667   -0.00734253   -0.01387763
     atom   17 type  3   force =     0.02487324   -0.00599138    0.01479217
     atom   18 type  4   force =     0.00012153   -0.00383883    0.00358517
     atom   19 type  4   force =    -0.00998751    0.00046258   -0.00889412
     atom   20 type  4   force =    -0.01002523   -0.00049938    0.00873867
     atom   21 type  4   force =     0.01039909    0.00059781   -0.00808055
     atom   22 type  4   force =     0.01029821   -0.00028405    0.00778985
     atom   23 type  5   force =     0.00000000    0.00000000    0.00000000
     The Hubbard contrib.    to forces
     atom    1 type  1   force =     0.00000000    0.00000000    0.00000000
     atom    2 type  1   force =     0.00000000    0.00000000    0.00000000
     atom    3 type  1   force =     0.00000000    0.00000000    0.00000000
     atom    4 type  1   force =     0.00000000    0.00000000    0.00000000
     atom    5 type  1   force =     0.00000000    0.00000000    0.00000000
     atom    6 type  2   force =     0.00000000    0.00000000    0.00000000
     atom    7 type  2   force =     0.00000000    0.00000000    0.00000000
     atom    8 type  3   force =     0.00000000    0.00000000    0.00000000
     atom    9 type  3   force =     0.00000000    0.00000000    0.00000000
     atom   10 type  3   force =     0.00000000    0.00000000    0.00000000
     atom   11 type  3   force =     0.00000000    0.00000000    0.00000000
     atom   12 type  3   force =     0.00000000    0.00000000    0.00000000
     atom   13 type  3   force =     0.00000000    0.00000000    0.00000000
     atom   14 type  3   force =     0.00000000    0.00000000    0.00000000
     atom   15 type  3   force =     0.00000000    0.00000000    0.00000000
     atom   16 type  3   force =     0.00000000    0.00000000    0.00000000
     atom   17 type  3   force =     0.00000000    0.00000000    0.00000000
     atom   18 type  4   force =     0.00000000    0.00000000    0.00000000
     atom   19 type  4   force =     0.00000000    0.00000000    0.00000000
     atom   20 type  4   force =     0.00000000    0.00000000    0.00000000
     atom   21 type  4   force =     0.00000000    0.00000000    0.00000000
     atom   22 type  4   force =     0.00000000    0.00000000    0.00000000
     atom   23 type  5   force =     0.00000000    0.00000000    0.00000000
     The SCF correction term to forces
     atom    1 type  1   force =     0.00000000    0.00000000   -0.00000000
     atom    2 type  1   force =     0.00000000   -0.00000000   -0.00000000
     atom    3 type  1   force =     0.00000000    0.00000000   -0.00000000
     atom    4 type  1   force =     0.00000000   -0.00000000   -0.00000000
     atom    5 type  1   force =     0.00000000    0.00000000   -0.00000000
     atom    6 type  2   force =     0.00000000   -0.00000000   -0.00000000
     atom    7 type  2   force =     0.00000000    0.00000000   -0.00000000
     atom    8 type  3   force =    -0.00000000    0.00000000   -0.00000000
     atom    9 type  3   force =     0.00000000    0.00000000   -0.00000000
     atom   10 type  3   force =    -0.00191639   -0.00564068    0.01249475
     atom   11 type  3   force =     0.00483154    0.00558583    0.00718493
     atom   12 type  3   force =     0.00034104    0.00332313    0.01258722
     atom   13 type  3   force =     0.00491254   -0.00579885    0.00822374
     atom   14 type  3   force =     0.00550816   -0.01065245    0.01107936
     atom   15 type  3   force =    -0.00201356    0.00155970    0.00857028
     atom   16 type  3   force =     0.00598709    0.00485020    0.01674402
     atom   17 type  3   force =    -0.00054899   -0.00412910    0.00415890
     atom   18 type  4   force =     0.01152644    0.01221685   -0.01717713
     atom   19 type  4   force =    -0.00390442    0.00146669    0.00640067
     atom   20 type  4   force =     0.00492751    0.00000030    0.00988415
     atom   21 type  4   force =     0.00626956    0.00383670    0.00957613
     atom   22 type  4   force =    -0.00321260    0.00182568    0.00716424
     atom   23 type  5   force =     0.00098032   -0.00080797   -0.00275081

     Total force =     0.462967     Total SCF correction =     0.047865
     SCF correction compared to forces is large: reduce conv_thr to get better values

     Entering Dynamics:    iteration =    10
                           time      =   0.0020 pico-seconds

ATOMIC_POSITIONS (angstrom)
Hf            2.6699999570        2.8271230292        6.6039642186    0   0   0
Hf            1.2529906802        1.2862841814        5.0584662261    0   0   0
Hf            1.2554868986        7.3898042948        5.0880677674    0   0   0
Hf            4.0870092338        1.2862841814        5.0584662261    0   0   0
Hf            4.0845130154        7.3898042948        5.0880677674    0   0   0
Nb            2.6699999570        2.7969306055        3.5155832167    0   0   0
Nb            2.6699999570        5.8763786763        6.6349979432    0   0   0
Ta            1.2093730560        4.3409278516        5.0711258323    0   0   0
Ta            4.1306268580        4.3409278516        5.0711258323    0   0   0
Ta            1.3071412971        1.3140670487        2.0586044048
Ta            1.3026772318        1.3083169261        8.0947457831
Ta            1.3039456725        7.3759050482        2.0460716818
Ta            1.3076446944        7.3651436058        8.0861672993
Ta            4.0328241752        1.3140549240        2.0586090064
Ta            4.0372963569        1.3083078946        8.0947435937
Ta            4.0360611362        7.3759170178        2.0460776197
Ta            4.0323592353        7.3651551856        8.0861660964
Zr            2.6699624943        5.8663974275        3.5272897362
Zr            1.2430031455        4.3220462519        1.9993313354
Zr            1.2395308819        4.3541432206        8.1504267956
Zr            4.0969578914        4.3220410130        1.9993331127
Zr            4.1004402784        4.3541401506        8.1504193388
H             4.3388921317        6.0420646465        5.0705373536

     kinetic energy (Ekin) =           2.61947001 Ry
     temperature           =       19694.36207959 K
     Ekin + Etot (const)   =       -2940.55167970 Ry

     The maximum number of steps has been reached.

     End of molecular dynamics calculation

     diffusion coefficients :
     atom     1   D =       0.00000000 cm^2/s
     atom     2   D =       0.00000000 cm^2/s
     atom     3   D =       0.00000000 cm^2/s
     atom     4   D =       0.00000000 cm^2/s
     atom     5   D =       0.00000000 cm^2/s
     atom     6   D =       0.00000000 cm^2/s
     atom     7   D =       0.00000000 cm^2/s
     atom     8   D =       0.00000000 cm^2/s
     atom     9   D =       0.00000000 cm^2/s
     atom    10   D =       0.00000000 cm^2/s
     atom    11   D =       0.00000000 cm^2/s
     atom    12   D =       0.00000000 cm^2/s
     atom    13   D =       0.00000000 cm^2/s
     atom    14   D =       0.00000000 cm^2/s
     atom    15   D =       0.00000000 cm^2/s
     atom    16   D =       0.00000000 cm^2/s
     atom    17   D =       0.00000000 cm^2/s
     atom    18   D =       0.00000000 cm^2/s
     atom    19   D =       0.00000001 cm^2/s
     atom    20   D =       0.00000001 cm^2/s
     atom    21   D =       0.00000001 cm^2/s
     atom    22   D =       0.00000001 cm^2/s
     atom    23   D =       0.01016134 cm^2/s

     < D > =       0.00072581 cm^2/s

     Writing all to output data dir outdir/pwscf.save/

     General routines

     Parallel routines

   This run was terminated on:   9:39:30  11Jun2023

   JOB DONE.