     Program PWSCF v.7.2 starts on 11Jun2023 at 10:18:47

     Reading input from md_data/md_Hf5Nb2Ta10Zr5H_10steps_100eV_incident45_polar180.in
Warning: card &CELL ignored
Warning: card / ignored

     Current dimensions of program PWSCF are:
     Max number of different atomic species (ntypx) = 10
     Max number of k-points (npk) =  40000
     Max angular momentum in pseudopotentials (lmaxx) =  4

     File outdir/pwscf.md deleted, as requested

     gamma-point specific algorithms are used

     R & G space division:  proc/nbgrp/npool/nimage =      12
     Subspace diagonalization in iterative solution of the eigenvalue problem:
     one sub-group per band group will be used

     Using Slab Decomposition

     bravais-lattice index     =            0
     lattice parameter (alat)  =      13.8706  a.u.
     unit-cell volume          =    4363.8306 (a.u.)^3
     number of atoms/cell      =           23
     number of atomic types    =            5
     number of electrons       =       277.00
     number of Kohn-Sham states=          167
     kinetic-energy cutoff     =     120.0000  Ry
     charge density cutoff     =     480.0000  Ry
     scf convergence threshold =      1.0E-03
     mixing beta               =       0.7000
     number of iterations used =            8  TF        mixing
     energy convergence thresh.=      0.0E+00
     force convergence thresh. =      0.0E+00
     Exchange-correlation=  SLA  PW   PBX  PBC
                           (   1   4   3   4   0   0   0)
     nstep                     =           10

     celldm(1)=  13.870589  celldm(2)=   0.000000  celldm(3)=   0.000000
     celldm(4)=   0.000000  celldm(5)=   0.000000  celldm(6)=   0.000000

     crystal axes: (cart. coord. in units of alat)
               a(1) = (   1.000000   0.000000   0.000000 )
               a(2) = (   0.000000   1.182561   0.000000 )
               a(3) = (   0.000000   0.000000   1.382801 )

     reciprocal axes: (cart. coord. in units 2 pi/alat)
               b(1) = (  1.000000  0.000000  0.000000 )
               b(2) = (  0.000000  0.845622  0.000000 )
               b(3) = (  0.000000  0.000000  0.723170 )

     PseudoPot. # 1 for Hf read from file:
     q-e/pseudo/hf_pbe_v1.uspp.F.UPF
     MD5 check sum: 8ee9378dfe14276e333edf04c5e4aa26
     Pseudo is Ultrasoft + core correction, Zval = 12.0
     Generated by new atomic code, or converted to UPF format
     Using radial grid of  921 points,  8 beta functions with:
                l(1) =   0
                l(2) =   0
                l(3) =   0
                l(4) =   1
                l(5) =   1
                l(6) =   2
                l(7) =   2
                l(8) =   3
     Q(r) pseudized with  6 coefficients,  rinner =    1.200   1.200   1.200
                                                       1.200   1.200   1.200
                                                       1.200

     PseudoPot. # 2 for Nb read from file:
     q-e/pseudo/nb_pbe_v1.uspp.F.UPF
     MD5 check sum: 573aab8a2fa660278ed4a62cd769473f
     Pseudo is Ultrasoft + core correction, Zval = 13.0
     Generated by new atomic code, or converted to UPF format
     Using radial grid of  887 points,  6 beta functions with:
                l(1) =   0
                l(2) =   0
                l(3) =   1
                l(4) =   1
                l(5) =   2
                l(6) =   2
     Q(r) pseudized with  6 coefficients,  rinner =    1.000   1.000   1.000
                                                       1.000   1.000

     PseudoPot. # 3 for Ta read from file:
     q-e/pseudo/ta_pbe_v1.uspp.F.UPF
     MD5 check sum: f8bbe9446314a3b8ea5d9f3e3836c939
     Pseudo is Ultrasoft + core correction, Zval = 13.0
     Generated by new atomic code, or converted to UPF format
     Using radial grid of  921 points,  7 beta functions with:
                l(1) =   0
                l(2) =   0
                l(3) =   1
                l(4) =   1
                l(5) =   2
                l(6) =   2
                l(7) =   3
     Q(r) pseudized with  6 coefficients,  rinner =    1.300   1.300   1.300
                                                       1.300   1.300   1.300
                                                       1.300

     PseudoPot. # 4 for Zr read from file:
     q-e/pseudo/zr_pbe_v1.uspp.F.UPF
     MD5 check sum: 5db81b1e868ab7776c4564c113de050b
     Pseudo is Ultrasoft + core correction, Zval = 12.0
     Generated by new atomic code, or converted to UPF format
     Using radial grid of  887 points,  6 beta functions with:
                l(1) =   0
                l(2) =   0
                l(3) =   1
                l(4) =   1
                l(5) =   2
                l(6) =   2
     Q(r) pseudized with  6 coefficients,  rinner =    1.200   1.200   1.200
                                                       1.200   1.200

     PseudoPot. # 5 for H  read from file:
     q-e/pseudo/h_pbe_v1.4.uspp.F.UPF
     MD5 check sum: 761ae9a214b05c3daf00ab9f6b793d6f
     Pseudo is Ultrasoft, Zval =  1.0
     Generated by new atomic code, or converted to UPF format
     Using radial grid of  615 points,  2 beta functions with:
                l(1) =   0
                l(2) =   0
     Q(r) pseudized with  8 coefficients,  rinner =    0.700

     atomic species   valence    mass     pseudopotential
        Hf            12.00   178.49000     Hf( 1.00)
        Nb            13.00    92.90637     Nb( 1.00)
        Ta            13.00   180.94788     Ta( 1.00)
        Zr            12.00    91.22400     Zr( 1.00)
        H              1.00     2.01400     H ( 1.00)

     Starting magnetic structure
     atomic species   magnetization
        Hf           0.000
        Nb           0.000
        Ta           0.000
        Zr           0.000
        H            0.000

     No symmetry found

   Cartesian axes

     site n.     atom                  positions (alat units)
         1           Hf  tau(   1) = (   0.3637602   0.3851666   0.8997227  )
         2           Hf  tau(   2) = (   0.1707072   0.1752431   0.6891644  )
         3           Hf  tau(   3) = (   0.1710473   1.0067854   0.6931973  )
         4           Hf  tau(   4) = (   0.5568133   0.1752431   0.6891644  )
         5           Hf  tau(   5) = (   0.5564732   1.0067854   0.6931973  )
         6           Nb  tau(   6) = (   0.3637602   0.3810532   0.4789623  )
         7           Nb  tau(   7) = (   0.3637602   0.8005966   0.9039507  )
         8           Ta  tau(   8) = (   0.1647647   0.5914071   0.6908891  )
         9           Ta  tau(   9) = (   0.5627557   0.5914071   0.6908891  )
        10           Ta  tau(  10) = (   0.1780998   0.1790358   0.2804876  )
        11           Ta  tau(  11) = (   0.1774916   0.1782549   1.1028038  )
        12           Ta  tau(  12) = (   0.1776580   1.0048810   0.2787789  )
        13           Ta  tau(  13) = (   0.1781622   1.0034173   1.1016352  )
        14           Ta  tau(  14) = (   0.5494206   0.1790358   0.2804876  )
        15           Ta  tau(  15) = (   0.5500289   0.1782549   1.1028038  )
        16           Ta  tau(  16) = (   0.5498625   1.0048810   0.2787789  )
        17           Ta  tau(  17) = (   0.5493582   1.0034173   1.1016352  )
        18           Zr  tau(  18) = (   0.3637602   0.7992215   0.4805700  )
        19           Zr  tau(  19) = (   0.1694598   0.5888390   0.2724796  )
        20           Zr  tau(  20) = (   0.1689898   0.5932048   1.1103210  )
        21           Zr  tau(  21) = (   0.5580607   0.5888390   0.2724796  )
        22           Zr  tau(  22) = (   0.5585306   0.5932048   1.1103210  )
        23           H   tau(  23) = (   0.6590918   0.4949446   0.6910327  )

     number of k points=     1  Gaussian smearing, width (Ry)=  0.0220
                       cart. coord. in units 2pi/alat
        k(    1) = (   0.0000000   0.0000000   0.0000000), wk =   1.0000000

     Check: negative core charge=   -0.000002
     Generating pointlists ...
     new r_m :   0.1385 (alat units)  1.9206 (a.u.) for type    1
     new r_m :   0.1397 (alat units)  1.9374 (a.u.) for type    2
     new r_m :   0.0562 (alat units)  0.7800 (a.u.) for type    3
     new r_m :   0.1415 (alat units)  1.9625 (a.u.) for type    4
     new r_m :   0.0562 (alat units)  0.7800 (a.u.) for type    5

     Initial potential from superposition of free atoms

     starting charge     266.9726, renormalised to     277.0000

     negative rho (up, down):  9.202E-01 9.202E-01
     Starting wfcs are  287 randomized atomic wfcs

     Self-consistent Calculation

     iteration #  1     ecut=   120.00 Ry     beta= 0.70
     Davidson diagonalization with overlap
     ethr =  1.00E-02,  avg # of iterations =  3.0

     negative rho (up, down):  9.512E-01 9.510E-01

     total energy              =   -2933.13036489 Ry
     estimated scf accuracy    <     321.21016563 Ry

     total magnetization       =     0.00 Bohr mag/cell
     absolute magnetization    =     0.08 Bohr mag/cell

[...]

     Magnetic moment per site  (integrated on atomic sphere of radius R)
     atom   1 (R=0.138)  charge=  9.2504   -0.0001
     atom   2 (R=0.138)  charge=  8.8873   -0.0003
     atom   3 (R=0.138)  charge=  8.8887    0.0001
     atom   4 (R=0.138)  charge=  8.8774   -0.0001
     atom   5 (R=0.138)  charge=  8.8931   -0.0003
     atom   6 (R=0.140)  charge= 10.3492   -0.0001
     atom   7 (R=0.140)  charge= 10.3514   -0.0001
     atom   8 (R=0.056)  charge=  1.3487   -0.0000
     atom   9 (R=0.056)  charge=  1.3650   -0.0000
     atom  10 (R=0.056)  charge=  1.3456   -0.0000
     atom  11 (R=0.056)  charge=  1.3451   -0.0000
     atom  12 (R=0.056)  charge=  1.3454    0.0000
     atom  13 (R=0.056)  charge=  1.3454    0.0000
     atom  14 (R=0.056)  charge=  1.3466   -0.0000
     atom  15 (R=0.056)  charge=  1.3467   -0.0000
     atom  16 (R=0.056)  charge=  1.3454   -0.0000
     atom  17 (R=0.056)  charge=  1.3464   -0.0000
     atom  18 (R=0.141)  charge=  9.4540   -0.0000
     atom  19 (R=0.141)  charge=  8.9978   -0.0004
     atom  20 (R=0.141)  charge=  8.9936   -0.0010
     atom  21 (R=0.141)  charge=  8.9997   -0.0003
     atom  22 (R=0.141)  charge=  8.9974   -0.0007
     atom  23 (R=0.056)  charge=  0.7704    0.0000

     End of self-consistent calculation

 ------ SPIN UP ------------

          k = 0.0000 0.0000 0.0000 ( 48454 PWs)   bands (ev):

   -57.8447 -57.8386 -57.7990 -57.7931 -57.7617 -57.7612 -57.7168 -57.7164
   -57.6189 -57.3946 -51.4145 -51.3627 -51.2872 -51.2300 -49.7042 -43.2457
   -43.2169 -38.6394 -38.6183 -38.5381 -38.5347 -36.8269 -25.9178 -24.8585
   -24.8547 -24.7719 -24.7696 -24.6546 -24.6485 -24.5350 -24.5227 -24.3916
   -24.3685 -24.3391 -24.3067 -24.3012 -24.2788 -24.2553 -24.2363 -24.1974
   -24.1912 -24.1505 -24.0315 -24.0189 -24.0171 -24.0155 -23.9660 -23.9560
   -23.9217 -23.9198 -23.6537 -23.6121 -21.1990 -20.9855 -20.6712 -20.5886
   -20.3334 -20.1917 -20.1528 -20.0585 -19.9554 -19.8671 -19.8635 -19.6418
   -19.4924 -19.4392 -19.3826 -19.3360 -19.2844 -19.2238 -18.7771 -18.7004
   -18.6352 -17.1901 -16.8777 -16.8601 -16.8286 -16.6277 -16.6175 -16.6066
[...]
    10.7053  10.7730  10.9207  10.9722  11.0169  11.0236  11.1925  11.2244
    11.2632  11.3729  11.3852  11.5774  11.7001  11.7777  11.7856  11.8103
    11.9849  12.0200  12.1153  12.1331  12.1922  12.1987  12.2106

     the Fermi energy is    10.2913 ev

!    total energy              =   -2943.17140982 Ry
     estimated scf accuracy    <       0.00094685 Ry
     smearing contrib. (-TS)   =      -0.09568597 Ry
     internal energy E=F+TS    =   -2943.07572385 Ry

     total magnetization       =    -0.00 Bohr mag/cell
     absolute magnetization    =     0.00 Bohr mag/cell

     convergence has been achieved in   4 iterations

     negative rho (up, down):  9.079E-01 9.079E-01

     Forces acting on atoms (cartesian axes, Ry/au):

     atom    1 type  1   force =    -0.01482190   -0.01885412    0.02406015
     atom    2 type  1   force =    -0.12860954   -0.01439617    0.00825455
     atom    3 type  1   force =    -0.13300006    0.01176973    0.01625327
     atom    4 type  1   force =     0.07362906   -0.26081697   -0.00037577
     atom    5 type  1   force =     0.14411763    0.00881476    0.02024280
     atom    6 type  2   force =    -0.01546833   -0.01013111   -0.01418663
     atom    7 type  2   force =     0.00786839    0.02116120   -0.00525642
     atom    8 type  3   force =    -0.12574019    0.00295219    0.00072680
     atom    9 type  3   force =     0.09458446    0.11182411   -0.00051648
     atom   10 type  3   force =    -0.02512370   -0.02130303   -0.06655424
     atom   11 type  3   force =    -0.02694061   -0.02925427    0.05504121
     atom   12 type  3   force =    -0.03554948    0.02511120   -0.05811550
     atom   13 type  3   force =    -0.03652870    0.02155407    0.05232293
     atom   14 type  3   force =     0.02921028   -0.03017947   -0.06510840
     atom   15 type  3   force =     0.03311419   -0.03822558    0.05693588
     atom   16 type  3   force =     0.02864800    0.03083548   -0.06109430
     atom   17 type  3   force =     0.02608604    0.02680856    0.05313109
     atom   18 type  4   force =     0.00277377    0.02618933   -0.01447823
     atom   19 type  4   force =    -0.14072869   -0.00531416   -0.12238923
     atom   20 type  4   force =    -0.14836408    0.00579913    0.11832982
     atom   21 type  4   force =     0.13901007   -0.00043681   -0.12281609
     atom   22 type  4   force =     0.14601786    0.00564670    0.11955989
     atom   23 type  5   force =     0.10581555    0.13044523    0.00603290
     The non-local contrib.  to forces
     atom    1 type  1   force =     0.01647545   -0.00382840    0.02375928
     atom    2 type  1   force =    -0.24352926   -0.16181689    0.02242451
     atom    3 type  1   force =    -0.24545502    0.15974510   -0.01917689
     atom    4 type  1   force =     0.20167738   -0.18010507    0.01653604
     atom    5 type  1   force =     0.24241076    0.23444384   -0.01687713
     atom    6 type  2   force =     0.00255835   -0.06328726   -0.06844511
     atom    7 type  2   force =     0.00182424    0.07354641    0.04697977
     atom    8 type  3   force =    -0.25862685   -0.00683834    0.00392287
     atom    9 type  3   force =     0.18470016   -0.03583298    0.00458232
     atom   10 type  3   force =    -0.23160616    0.01346390   -0.23313468
     atom   11 type  3   force =    -0.23472866    0.01700925    0.21630623
     atom   12 type  3   force =    -0.22911214   -0.03437473   -0.19876404
     atom   13 type  3   force =    -0.23718806   -0.01792607    0.21628636
     atom   14 type  3   force =     0.23877309    0.01030364   -0.22261993
     atom   15 type  3   force =     0.24706233    0.00893149    0.20965173
     atom   16 type  3   force =     0.22688912   -0.02724113   -0.19083902
     atom   17 type  3   force =     0.23359356   -0.00603534    0.21160629
     atom   18 type  4   force =    -0.00568628    0.06750455   -0.04319377
     atom   19 type  4   force =     0.07199377    0.00220265    0.06101616
     atom   20 type  4   force =     0.06626638    0.00190022   -0.05858638
     atom   21 type  4   force =    -0.07646306    0.00520076    0.04473578
     atom   22 type  4   force =    -0.07236031    0.00117961   -0.04577924
     atom   23 type  5   force =    -0.02917646   -0.01010736    0.00221338
     The ionic contribution  to forces
     atom    1 type  1   force =    -0.81614567   -4.55133170   15.61100255
     atom    2 type  1   force =   -28.02725574   -6.42304404    0.77977362
     atom    3 type  1   force =   -27.85796013    6.10797785   -0.71408567
     atom    4 type  1   force =    27.24650961   -9.06222589    0.75277690
     atom    5 type  1   force =    27.78831085    6.04642754   -0.71306768
     atom    6 type  2   force =    -0.86179364   -3.51569208  -15.63770562
     atom    7 type  2   force =    -0.13414651    3.82144942   14.97083018
     atom    8 type  3   force =   -38.83532430    0.35195423   -0.06823152
     atom    9 type  3   force =    38.22692005    2.76853995   -0.07135793
     atom   10 type  3   force =   -24.90055395   -2.18702704  -24.71865406
     atom   11 type  3   force =   -23.97266486   -0.92080598   23.71393135
     atom   12 type  3   force =   -24.05758116    0.73987753  -23.65665165
     atom   13 type  3   force =   -24.84097108    2.14760898   24.59535716
     atom   14 type  3   force =    24.78931037   -2.31359361  -24.98456469
     atom   15 type  3   force =    23.86335082   -1.04665103   23.97777407
     atom   16 type  3   force =    24.02222876    0.72549235  -23.70356919
     atom   17 type  3   force =    24.80512456    2.13329301   24.64207171
     atom   18 type  4   force =    -0.12532049    4.58394900  -14.82142260
     atom   19 type  4   force =   -25.13259991    1.07280535  -27.10844629
     atom   20 type  4   force =   -25.08808057   -0.87073813   27.08631216
     atom   21 type  4   force =    25.05267760    1.18451012  -27.32789323
     atom   22 type  4   force =    25.01002058   -0.75903759   27.30088482
     atom   23 type  5   force =     3.84594482   -0.03373826    0.09493562
     The local contribution  to forces
     atom    1 type  1   force =     0.77669218    4.53477624  -15.58497935
     atom    2 type  1   force =    28.14496516    6.58043190   -0.75627263
     atom    3 type  1   force =    27.98090764   -6.26505115    0.79115447
     atom    4 type  1   force =   -27.37761862    8.98320964   -0.72986776
     atom    5 type  1   force =   -27.90008107   -6.29318257    0.79234633
     atom    6 type  2   force =     0.83192695    3.58068519   15.71507713
     atom    7 type  2   force =     0.13759163   -3.86700033  -15.00006654
     atom    8 type  3   force =    38.99692899   -0.34048349    0.10312618
     atom    9 type  3   force =   -38.34225598   -2.60174060    0.10428427
     atom   10 type  3   force =    25.13351573    2.15455833   24.89590364
     atom   11 type  3   force =    24.20232581    0.85942334  -23.90358388
     atom   12 type  3   force =    24.27760971   -0.68193448   23.80600949
     atom   13 type  3   force =    25.06293492   -2.09602508  -24.78767704
     atom   14 type  3   force =   -25.02918797    2.27686230   25.14493101
     atom   15 type  3   force =   -24.10156872    0.98533922  -24.15210771
     atom   16 type  3   force =   -24.24852146   -0.67130740   23.84225235
     atom   17 type  3   force =   -25.03417149   -2.08954118  -24.82980988
     atom   18 type  4   force =     0.13004698   -4.63102535   14.88058571
     atom   19 type  4   force =    24.93431924   -1.08058918   26.93448657
     atom   20 type  4   force =    24.87689522    0.87663542  -26.93244805
     atom   21 type  4   force =   -24.85354744   -1.18939501   27.16349636
     atom   22 type  4   force =   -24.79651137    0.76520077  -27.15310743
     atom   23 type  5   force =    -3.71191747    0.17358079   -0.08536741
     The core correction contribution to forces
     atom    1 type  1   force =     0.00068454    0.00377966   -0.00247710
     atom    2 type  1   force =    -0.00865552   -0.00459812    0.00118359
     atom    3 type  1   force =    -0.01251228    0.00225949   -0.00186070
     atom    4 type  1   force =     0.00314792    0.00388882    0.00029589
     atom    5 type  1   force =     0.01382238    0.00816709   -0.00204432
     atom    6 type  2   force =     0.00034798    0.00318222    0.00303552
     atom    7 type  2   force =    -0.00020349   -0.00370224   -0.00130728
     atom    8 type  3   force =    -0.03012394    0.00079767    0.00008998
     atom    9 type  3   force =     0.01761548    0.00371734    0.00083831
     atom   10 type  3   force =    -0.02514611    0.00684185   -0.01744680
     atom   11 type  3   force =    -0.02592398    0.00788572    0.01687507
     atom   12 type  3   force =    -0.02620593   -0.00728056   -0.01534105
     atom   13 type  3   force =    -0.02588696   -0.00689807    0.01557331
     atom   14 type  3   force =     0.02584504    0.00656380   -0.01507010
     atom   15 type  3   force =     0.02752831    0.00761673    0.01520925
     atom   16 type  3   force =     0.02545155   -0.00720476   -0.01533670
     atom   17 type  3   force =     0.02513453   -0.00545844    0.01623742
     atom   18 type  4   force =     0.00016832   -0.00386681    0.00189966
     atom   19 type  4   force =    -0.01007177    0.00051701   -0.00892476
     atom   20 type  4   force =    -0.00994621   -0.00040085    0.00879256
     atom   21 type  4   force =     0.01035689    0.00032861   -0.00785791
     atom   22 type  4   force =     0.01034643   -0.00048315    0.00794760
     atom   23 type  5   force =     0.00000000    0.00000000    0.00000000
     The Hubbard contrib.    to forces
     atom    1 type  1   force =     0.00000000    0.00000000    0.00000000
     atom    2 type  1   force =     0.00000000    0.00000000    0.00000000
     atom    3 type  1   force =     0.00000000    0.00000000    0.00000000
     atom    4 type  1   force =     0.00000000    0.00000000    0.00000000
     atom    5 type  1   force =     0.00000000    0.00000000    0.00000000
     atom    6 type  2   force =     0.00000000    0.00000000    0.00000000
     atom    7 type  2   force =     0.00000000    0.00000000    0.00000000
     atom    8 type  3   force =     0.00000000    0.00000000    0.00000000
     atom    9 type  3   force =     0.00000000    0.00000000    0.00000000
     atom   10 type  3   force =     0.00000000    0.00000000    0.00000000
     atom   11 type  3   force =     0.00000000    0.00000000    0.00000000
     atom   12 type  3   force =     0.00000000    0.00000000    0.00000000
     atom   13 type  3   force =     0.00000000    0.00000000    0.00000000
     atom   14 type  3   force =     0.00000000    0.00000000    0.00000000
     atom   15 type  3   force =     0.00000000    0.00000000    0.00000000
     atom   16 type  3   force =     0.00000000    0.00000000    0.00000000
     atom   17 type  3   force =     0.00000000    0.00000000    0.00000000
     atom   18 type  4   force =     0.00000000    0.00000000    0.00000000
     atom   19 type  4   force =     0.00000000    0.00000000    0.00000000
     atom   20 type  4   force =     0.00000000    0.00000000    0.00000000
     atom   21 type  4   force =     0.00000000    0.00000000    0.00000000
     atom   22 type  4   force =     0.00000000    0.00000000    0.00000000
     atom   23 type  5   force =     0.00000000    0.00000000    0.00000000
     The SCF correction term to forces
     atom    1 type  1   force =     0.00000000   -0.00000000   -0.00000000
     atom    2 type  1   force =     0.00000000   -0.00000000   -0.00000000
     atom    3 type  1   force =     0.00000000    0.00000000   -0.00000000
     atom    4 type  1   force =    -0.00000000   -0.00000000   -0.00000000
     atom    5 type  1   force =    -0.00000000    0.00000000   -0.00000000
     atom    6 type  2   force =     0.00000000   -0.00000000   -0.00000000
     atom    7 type  2   force =     0.00000000   -0.00000000   -0.00000000
     atom    8 type  3   force =     0.00000000   -0.00000000   -0.00000000
     atom    9 type  3   force =     0.00000000   -0.00000000   -0.00000000
     atom   10 type  3   force =    -0.00164708   -0.00911895    0.00922796
     atom   11 type  3   force =     0.00373720    0.00725452    0.01396274
     atom   12 type  3   force =    -0.00057383    0.00884457    0.00908205
     atom   13 type  3   force =     0.00426862   -0.00518456    0.01523343
     atom   14 type  3   force =     0.00415588   -0.01029446    0.01466561
     atom   15 type  3   force =    -0.00357242    0.00655913    0.00885884
     atom   16 type  3   force =     0.00228616    0.01111754    0.00884855
     atom   17 type  3   force =    -0.00390899   -0.00542837    0.01547584
     atom   18 type  4   force =     0.00325137    0.00964905   -0.02989693
     atom   19 type  4   force =    -0.00468389   -0.00022888    0.00192940
     atom   20 type  4   force =     0.00618724   -0.00157640    0.01670984
     atom   21 type  4   force =     0.00567221   -0.00106017    0.00715321
     atom   22 type  4   force =    -0.00579133   -0.00119181    0.01206444
     atom   23 type  5   force =     0.00065080    0.00073119   -0.00329839

     Total force =     0.459924     Total SCF correction =     0.058777
     SCF correction compared to forces is large: reduce conv_thr to get better values

     Entering Dynamics:    iteration =    10
                           time      =   0.0020 pico-seconds

ATOMIC_POSITIONS (angstrom)
Hf            2.6699999570        2.8271230292        6.6039642186    0   0   0
Hf            1.2529906802        1.2862841814        5.0584662261    0   0   0
Hf            1.2554868986        7.3898042948        5.0880677674    0   0   0
Hf            4.0870092338        1.2862841814        5.0584662261    0   0   0
Hf            4.0845130154        7.3898042948        5.0880677674    0   0   0
Nb            2.6699999570        2.7969306055        3.5155832167    0   0   0
Nb            2.6699999570        5.8763786763        6.6349979432    0   0   0
Ta            1.2093730560        4.3409278516        5.0711258323    0   0   0
Ta            4.1306268580        4.3409278516        5.0711258323    0   0   0
Ta            1.3071743843        1.3140606143        2.0586070141
Ta            1.3027051865        1.3083133345        8.0947459616
Ta            1.3039142928        7.3759009660        2.0460726893
Ta            1.3076138293        7.3651362067        8.0861721634
Ta            4.0328300710        1.3140506944        2.0586117152
Ta            4.0372983970        1.3083032957        8.0947400897
Ta            4.0360587855        7.3759117827        2.0460731750
Ta            4.0323545738        7.3651488715        8.0861672831
Zr            2.6700403530        5.8664035764        3.5272981110
Zr            1.2430031338        4.3220579060        1.9993344556
Zr            1.2395280192        4.3541571861        8.1504294676
Zr            4.0969618327        4.3220709203        1.9993397140
Zr            4.1004337732        4.3541659263        8.1504289438
H             4.3376502795        2.6394264949        5.0736912412

     kinetic energy (Ekin) =           2.61458105 Ry
     temperature           =       19657.60469665 K
     Ekin + Etot (const)   =       -2940.55682877 Ry

     The maximum number of steps has been reached.

     End of molecular dynamics calculation

     diffusion coefficients :
     atom     1   D =       0.00000000 cm^2/s
     atom     2   D =       0.00000000 cm^2/s
     atom     3   D =       0.00000000 cm^2/s
     atom     4   D =       0.00000000 cm^2/s
     atom     5   D =       0.00000000 cm^2/s
     atom     6   D =       0.00000000 cm^2/s
     atom     7   D =       0.00000000 cm^2/s
     atom     8   D =       0.00000000 cm^2/s
     atom     9   D =       0.00000000 cm^2/s
     atom    10   D =       0.00000000 cm^2/s
     atom    11   D =       0.00000000 cm^2/s
     atom    12   D =       0.00000000 cm^2/s
     atom    13   D =       0.00000000 cm^2/s
     atom    14   D =       0.00000000 cm^2/s
     atom    15   D =       0.00000000 cm^2/s
     atom    16   D =       0.00000000 cm^2/s
     atom    17   D =       0.00000000 cm^2/s
     atom    18   D =       0.00000000 cm^2/s
     atom    19   D =       0.00000001 cm^2/s
     atom    20   D =       0.00000001 cm^2/s
     atom    21   D =       0.00000001 cm^2/s
     atom    22   D =       0.00000001 cm^2/s
     atom    23   D =       0.01014719 cm^2/s

     < D > =       0.00072480 cm^2/s

     Writing all to output data dir outdir/pwscf.save/

     General routines

     Parallel routines

   This run was terminated on:  10:58:13  11Jun2023

   JOB DONE.