     Program PWSCF v.7.2 starts on 11Jun2023 at  8:21:11

     Reading input from md_data/md_Hf5Nb2Ta10Zr5H_10steps_50eV_incident45_polar0.in
Warning: card &CELL ignored
Warning: card / ignored

     Current dimensions of program PWSCF are:
     Max number of different atomic species (ntypx) = 10
     Max number of k-points (npk) =  40000
     Max angular momentum in pseudopotentials (lmaxx) =  4

     File outdir/pwscf.md deleted, as requested

     gamma-point specific algorithms are used

     R & G space division:  proc/nbgrp/npool/nimage =      12
     Subspace diagonalization in iterative solution of the eigenvalue problem:
     one sub-group per band group will be used

     Using Slab Decomposition

     bravais-lattice index     =            0
     lattice parameter (alat)  =      13.8706  a.u.
     unit-cell volume          =    4363.8306 (a.u.)^3
     number of atoms/cell      =           23
     number of atomic types    =            5
     number of electrons       =       277.00
     number of Kohn-Sham states=          167
     kinetic-energy cutoff     =     120.0000  Ry
     charge density cutoff     =     480.0000  Ry
     scf convergence threshold =      1.0E-03
     mixing beta               =       0.7000
     number of iterations used =            8  TF        mixing
     energy convergence thresh.=      0.0E+00
     force convergence thresh. =      0.0E+00
     Exchange-correlation=  SLA  PW   PBX  PBC
                           (   1   4   3   4   0   0   0)
     nstep                     =           10

     celldm(1)=  13.870589  celldm(2)=   0.000000  celldm(3)=   0.000000
     celldm(4)=   0.000000  celldm(5)=   0.000000  celldm(6)=   0.000000

     crystal axes: (cart. coord. in units of alat)
               a(1) = (   1.000000   0.000000   0.000000 )
               a(2) = (   0.000000   1.182561   0.000000 )
               a(3) = (   0.000000   0.000000   1.382801 )

     reciprocal axes: (cart. coord. in units 2 pi/alat)
               b(1) = (  1.000000  0.000000  0.000000 )
               b(2) = (  0.000000  0.845622  0.000000 )
               b(3) = (  0.000000  0.000000  0.723170 )

     PseudoPot. # 1 for Hf read from file:
     q-e/pseudo/hf_pbe_v1.uspp.F.UPF
     MD5 check sum: 8ee9378dfe14276e333edf04c5e4aa26
     Pseudo is Ultrasoft + core correction, Zval = 12.0
     Generated by new atomic code, or converted to UPF format
     Using radial grid of  921 points,  8 beta functions with:
                l(1) =   0
                l(2) =   0
                l(3) =   0
                l(4) =   1
                l(5) =   1
                l(6) =   2
                l(7) =   2
                l(8) =   3
     Q(r) pseudized with  6 coefficients,  rinner =    1.200   1.200   1.200
                                                       1.200   1.200   1.200
                                                       1.200

     PseudoPot. # 2 for Nb read from file:
     q-e/pseudo/nb_pbe_v1.uspp.F.UPF
     MD5 check sum: 573aab8a2fa660278ed4a62cd769473f
     Pseudo is Ultrasoft + core correction, Zval = 13.0
     Generated by new atomic code, or converted to UPF format
     Using radial grid of  887 points,  6 beta functions with:
                l(1) =   0
                l(2) =   0
                l(3) =   1
                l(4) =   1
                l(5) =   2
                l(6) =   2
     Q(r) pseudized with  6 coefficients,  rinner =    1.000   1.000   1.000
                                                       1.000   1.000

     PseudoPot. # 3 for Ta read from file:
     q-e/pseudo/ta_pbe_v1.uspp.F.UPF
     MD5 check sum: f8bbe9446314a3b8ea5d9f3e3836c939
     Pseudo is Ultrasoft + core correction, Zval = 13.0
     Generated by new atomic code, or converted to UPF format
     Using radial grid of  921 points,  7 beta functions with:
                l(1) =   0
                l(2) =   0
                l(3) =   1
                l(4) =   1
                l(5) =   2
                l(6) =   2
                l(7) =   3
     Q(r) pseudized with  6 coefficients,  rinner =    1.300   1.300   1.300
                                                       1.300   1.300   1.300
                                                       1.300

     PseudoPot. # 4 for Zr read from file:
     q-e/pseudo/zr_pbe_v1.uspp.F.UPF
     MD5 check sum: 5db81b1e868ab7776c4564c113de050b
     Pseudo is Ultrasoft + core correction, Zval = 12.0
     Generated by new atomic code, or converted to UPF format
     Using radial grid of  887 points,  6 beta functions with:
                l(1) =   0
                l(2) =   0
                l(3) =   1
                l(4) =   1
                l(5) =   2
                l(6) =   2
     Q(r) pseudized with  6 coefficients,  rinner =    1.200   1.200   1.200
                                                       1.200   1.200

     PseudoPot. # 5 for H  read from file:
     q-e/pseudo/h_pbe_v1.4.uspp.F.UPF
     MD5 check sum: 761ae9a214b05c3daf00ab9f6b793d6f
     Pseudo is Ultrasoft, Zval =  1.0
     Generated by new atomic code, or converted to UPF format
     Using radial grid of  615 points,  2 beta functions with:
                l(1) =   0
                l(2) =   0
     Q(r) pseudized with  8 coefficients,  rinner =    0.700

     atomic species   valence    mass     pseudopotential
        Hf            12.00   178.49000     Hf( 1.00)
        Nb            13.00    92.90637     Nb( 1.00)
        Ta            13.00   180.94788     Ta( 1.00)
        Zr            12.00    91.22400     Zr( 1.00)
        H              1.00     2.01400     H ( 1.00)

     Starting magnetic structure
     atomic species   magnetization
        Hf           0.000
        Nb           0.000
        Ta           0.000
        Zr           0.000
        H            0.000

     No symmetry found

   Cartesian axes

     site n.     atom                  positions (alat units)
         1           Hf  tau(   1) = (   0.3637602   0.3851666   0.8997227  )
         2           Hf  tau(   2) = (   0.1707072   0.1752431   0.6891644  )
         3           Hf  tau(   3) = (   0.1710473   1.0067854   0.6931973  )
         4           Hf  tau(   4) = (   0.5568133   0.1752431   0.6891644  )
         5           Hf  tau(   5) = (   0.5564732   1.0067854   0.6931973  )
         6           Nb  tau(   6) = (   0.3637602   0.3810532   0.4789623  )
         7           Nb  tau(   7) = (   0.3637602   0.8005966   0.9039507  )
         8           Ta  tau(   8) = (   0.1647647   0.5914071   0.6908891  )
         9           Ta  tau(   9) = (   0.5627557   0.5914071   0.6908891  )
        10           Ta  tau(  10) = (   0.1780998   0.1790358   0.2804876  )
        11           Ta  tau(  11) = (   0.1774916   0.1782549   1.1028038  )
        12           Ta  tau(  12) = (   0.1776580   1.0048810   0.2787789  )
        13           Ta  tau(  13) = (   0.1781622   1.0034173   1.1016352  )
        14           Ta  tau(  14) = (   0.5494206   0.1790358   0.2804876  )
        15           Ta  tau(  15) = (   0.5500289   0.1782549   1.1028038  )
        16           Ta  tau(  16) = (   0.5498625   1.0048810   0.2787789  )
        17           Ta  tau(  17) = (   0.5493582   1.0034173   1.1016352  )
        18           Zr  tau(  18) = (   0.3637602   0.7992215   0.4805700  )
        19           Zr  tau(  19) = (   0.1694598   0.5888390   0.2724796  )
        20           Zr  tau(  20) = (   0.1689898   0.5932048   1.1103210  )
        21           Zr  tau(  21) = (   0.5580607   0.5888390   0.2724796  )
        22           Zr  tau(  22) = (   0.5585306   0.5932048   1.1103210  )
        23           H   tau(  23) = (   0.6590918   0.6876167   0.6910327  )

     number of k points=     1  Gaussian smearing, width (Ry)=  0.0220
                       cart. coord. in units 2pi/alat
        k(    1) = (   0.0000000   0.0000000   0.0000000), wk =   1.0000000

     Check: negative core charge=   -0.000002
     Generating pointlists ...
     new r_m :   0.1383 (alat units)  1.9183 (a.u.) for type    1
     new r_m :   0.1397 (alat units)  1.9374 (a.u.) for type    2
     new r_m :   0.0562 (alat units)  0.7790 (a.u.) for type    3
     new r_m :   0.1415 (alat units)  1.9625 (a.u.) for type    4
     new r_m :   0.0562 (alat units)  0.7790 (a.u.) for type    5

     Initial potential from superposition of free atoms

     starting charge     266.9726, renormalised to     277.0000

     negative rho (up, down):  9.202E-01 9.202E-01
     Starting wfcs are  287 randomized atomic wfcs

     Self-consistent Calculation

     iteration #  1     ecut=   120.00 Ry     beta= 0.70
     Davidson diagonalization with overlap
     ethr =  1.00E-02,  avg # of iterations =  3.0

     negative rho (up, down):  9.508E-01 9.506E-01

     total energy              =   -2933.26354929 Ry
     estimated scf accuracy    <     320.07738183 Ry

     total magnetization       =     0.00 Bohr mag/cell
     absolute magnetization    =     0.08 Bohr mag/cell

[...]

     Magnetic moment per site  (integrated on atomic sphere of radius R)
     atom   1 (R=0.138)  charge=  9.2387   -0.0001
     atom   2 (R=0.138)  charge=  8.8798    0.0002
     atom   3 (R=0.138)  charge=  8.8810    0.0001
     atom   4 (R=0.138)  charge=  8.8842   -0.0000
     atom   5 (R=0.138)  charge=  8.8709   -0.0001
     atom   6 (R=0.140)  charge= 10.3532    0.0001
     atom   7 (R=0.140)  charge= 10.3490   -0.0000
     atom   8 (R=0.056)  charge=  1.3405   -0.0000
     atom   9 (R=0.056)  charge=  1.3566    0.0000
     atom  10 (R=0.056)  charge=  1.3376    0.0000
     atom  11 (R=0.056)  charge=  1.3370   -0.0000
     atom  12 (R=0.056)  charge=  1.3370   -0.0000
     atom  13 (R=0.056)  charge=  1.3371    0.0000
     atom  14 (R=0.056)  charge=  1.3384   -0.0000
     atom  15 (R=0.056)  charge=  1.3386    0.0000
     atom  16 (R=0.056)  charge=  1.3367   -0.0000
     atom  17 (R=0.056)  charge=  1.3380   -0.0000
     atom  18 (R=0.141)  charge=  9.4570   -0.0000
     atom  19 (R=0.141)  charge=  8.9970   -0.0011
     atom  20 (R=0.141)  charge=  8.9944   -0.0004
     atom  21 (R=0.141)  charge=  8.9995   -0.0010
     atom  22 (R=0.141)  charge=  8.9961   -0.0004
     atom  23 (R=0.056)  charge=  0.7692    0.0000

     End of self-consistent calculation

 ------ SPIN UP ------------

          k = 0.0000 0.0000 0.0000 ( 48454 PWs)   bands (ev):

   -57.8409 -57.8373 -57.7948 -57.7922 -57.7647 -57.7567 -57.7195 -57.7128
   -57.6211 -57.4150 -51.4144 -51.3673 -51.2853 -51.2289 -49.7397 -43.2368
   -43.2205 -38.6298 -38.6211 -38.5374 -38.5285 -36.8080 -25.9622 -24.8563
   -24.8508 -24.7686 -24.7670 -24.6538 -24.6455 -24.5410 -24.5157 -24.3920
   -24.3671 -24.3396 -24.3047 -24.2998 -24.2809 -24.2551 -24.2371 -24.1971
   -24.1912 -24.1498 -24.0299 -24.0194 -24.0139 -24.0118 -23.9642 -23.9524
   -23.9280 -23.9125 -23.6490 -23.6245 -21.1975 -20.9867 -20.6710 -20.5937
   -20.3238 -20.1861 -20.1666 -20.0606 -19.9523 -19.8812 -19.8634 -19.6429
   -19.4919 -19.4403 -19.3893 -19.3370 -19.2698 -19.2200 -18.8101 -18.7207
   -18.6690 -17.1867 -16.8823 -16.8582 -16.8196 -16.6272 -16.6105 -16.6084
[...]
     9.3770   9.5033   9.6822   9.7134   9.7888   9.8572   9.9715  10.1023
    10.1733  10.2314  10.3425  10.3584  10.3945  10.4374  10.5444  10.5897
    10.6962  10.7628  10.9160  10.9441  11.0146  11.0374  11.1852  11.2216
    11.2612  11.3839  11.3944  11.5742  11.6928  11.7865  11.8017  11.8146
    12.0013  12.0575  12.1369  12.1707  12.1937  12.2092  12.2152

     the Fermi energy is    10.2835 ev

!    total energy              =   -2943.21274684 Ry
     estimated scf accuracy    <       0.00018424 Ry
     smearing contrib. (-TS)   =      -0.09589244 Ry
     internal energy E=F+TS    =   -2943.11685440 Ry

     total magnetization       =    -0.00 Bohr mag/cell
     absolute magnetization    =     0.00 Bohr mag/cell

     convergence has been achieved in   5 iterations

     negative rho (up, down):  9.079E-01 9.079E-01

     Forces acting on atoms (cartesian axes, Ry/au):

     atom    1 type  1   force =     0.00039856   -0.02874023    0.01552941
     atom    2 type  1   force =    -0.13384135   -0.02011246    0.00005773
     atom    3 type  1   force =    -0.12695301    0.01706237    0.00740212
     atom    4 type  1   force =     0.15567734   -0.00910189   -0.00137036
     atom    5 type  1   force =     0.08925994    0.06509952    0.01661297
     atom    6 type  2   force =     0.00339260   -0.02158283    0.00373199
     atom    7 type  2   force =    -0.01554336    0.01097706    0.01099904
     atom    8 type  3   force =    -0.12646940    0.00241114   -0.00287041
     atom    9 type  3   force =     0.03954641   -0.20652646   -0.00133196
     atom   10 type  3   force =    -0.04010104   -0.01938279   -0.05954919
     atom   11 type  3   force =    -0.04191402   -0.02557968    0.05438631
     atom   12 type  3   force =    -0.01792555    0.02719867   -0.06097122
     atom   13 type  3   force =    -0.02055911    0.02323719    0.05803953
     atom   14 type  3   force =     0.02761393   -0.02415178   -0.06200068
     atom   15 type  3   force =     0.03309246   -0.03205368    0.05760061
     atom   16 type  3   force =     0.02463416    0.03525313   -0.06115562
     atom   17 type  3   force =     0.02439579    0.03011829    0.05741510
     atom   18 type  4   force =    -0.01433112    0.01766978   -0.01944442
     atom   19 type  4   force =    -0.14176846   -0.00471767   -0.12258833
     atom   20 type  4   force =    -0.14862218    0.00507180    0.11972354
     atom   21 type  4   force =     0.13721050   -0.00524053   -0.12263075
     atom   22 type  4   force =     0.14615180    0.00199013    0.11987205
     atom   23 type  5   force =     0.14665512    0.16110092   -0.00745748
     The non-local contrib.  to forces
     atom    1 type  1   force =     0.00225999   -0.00262643    0.03750369
     atom    2 type  1   force =    -0.24852727   -0.16547167    0.01366075
     atom    3 type  1   force =    -0.23877660    0.15718970   -0.02714760
     atom    4 type  1   force =     0.24835129   -0.21350544    0.01534882
     atom    5 type  1   force =     0.18454763    0.18555984   -0.02145370
     atom    6 type  2   force =     0.00445036   -0.06540578   -0.05542725
     atom    7 type  2   force =     0.00137390    0.08453509    0.05849015
     atom    8 type  3   force =    -0.25614655    0.00537987   -0.00493296
     atom    9 type  3   force =     0.17449306    0.00278631   -0.00476187
     atom   10 type  3   force =    -0.24445076    0.01623227   -0.22067452
     atom   11 type  3   force =    -0.25022879    0.01686863    0.21638727
     atom   12 type  3   force =    -0.21515614   -0.03124839   -0.19806262
     atom   13 type  3   force =    -0.22720536   -0.01109548    0.22337136
     atom   14 type  3   force =     0.23748638    0.00646766   -0.22176713
     atom   15 type  3   force =     0.24453810    0.01000537    0.21233826
     atom   16 type  3   force =     0.22783432   -0.02655331   -0.18982638
     atom   17 type  3   force =     0.23371944   -0.00858453    0.21695092
     atom   18 type  4   force =    -0.00093572    0.07822366   -0.06606873
     atom   19 type  4   force =     0.07212660   -0.00020202    0.05882403
     atom   20 type  4   force =     0.06843103    0.00014285   -0.05499671
     atom   21 type  4   force =    -0.07580933    0.00220569    0.04603605
     atom   22 type  4   force =    -0.07091036    0.00056787   -0.03965900
     atom   23 type  5   force =    -0.03902700   -0.03019759   -0.00229700
     The ionic contribution  to forces
     atom    1 type  1   force =    -0.14087035   -4.83154541   14.96451493
     atom    2 type  1   force =   -27.84510614   -6.14886067    0.78174972
     atom    3 type  1   force =   -27.93113447    6.39670217   -0.71209478
     atom    4 type  1   force =    27.77603594   -6.12217233    0.78116384
     atom    5 type  1   force =    27.16759091    8.28292494   -0.69227840
     atom    6 type  2   force =    -0.14785391   -3.79374933  -14.94068806
     atom    7 type  2   force =    -0.75305610    3.63364203   15.50901347
     atom    8 type  3   force =   -38.76512660   -0.17553583   -0.06745476
     atom    9 type  3   force =    37.66937113   -2.97674700   -0.06719344
     atom   10 type  3   force =   -24.85310990   -2.07356475  -24.61054124
     atom   11 type  3   force =   -23.92584173   -0.80713501   23.60653004
     atom   12 type  3   force =   -24.07341088    0.86906860  -23.74508772
     atom   13 type  3   force =   -24.85735369    2.27607197   24.68450837
     atom   14 type  3   force =    24.81748000   -2.06809472  -24.65585687
     atom   15 type  3   force =    23.89074487   -0.80138142   23.65168999
     atom   16 type  3   force =    23.96673490    0.99255230  -23.97714139
     atom   17 type  3   force =    24.74845364    2.40102340   24.91990566
     atom   18 type  4   force =    -0.70848141    4.40395464  -15.32052173
     atom   19 type  4   force =   -25.11614310    0.88410571  -27.10904375
     atom   20 type  4   force =   -25.07231439   -1.05835782   27.08927516
     atom   21 type  4   force =    25.02590536    0.77442515  -27.34316940
     atom   22 type  4   force =    24.98233347   -1.16690697   27.32626969
     atom   23 type  5   force =     4.14515245    1.10958033   -0.07354933
     The local contribution  to forces
     atom    1 type  1   force =     0.13828886    4.79597246  -14.97767160
     atom    2 type  1   force =    27.97182671    6.29385426   -0.78116526
     atom    3 type  1   force =    28.05222667   -6.54145774    0.76412341
     atom    4 type  1   force =   -27.88158412    6.33313052   -0.78381258
     atom    5 type  1   force =   -27.26146041   -8.41018114    0.74820273
     atom    6 type  2   force =     0.14632613    3.83691156   15.00458992
     atom    7 type  2   force =     0.73420304   -3.69725137  -15.54216466
     atom    8 type  3   force =    38.92395440    0.17383540    0.08290013
     atom    9 type  3   force =   -37.81797762    2.77501373    0.08500262
     atom   10 type  3   force =    25.08757519    2.03488064   24.78287041
     atom   11 type  3   force =    24.15954653    0.75283135  -23.78797197
     atom   12 type  3   force =    24.29635356   -0.80675701   23.89357875
     atom   13 type  3   force =    25.08582089   -2.23214803  -24.86978840
     atom   14 type  3   force =   -25.05717237    2.03838248   24.82901341
     atom   15 type  3   force =   -24.12649496    0.74769402  -23.82672543
     atom   16 type  3   force =   -24.19983496   -0.92816111   24.11524316
     atom   17 type  3   force =   -24.98099328   -2.35270526  -25.09760880
     atom   18 type  4   force =     0.69193911   -4.46375797   15.37127759
     atom   19 type  4   force =    24.91857903   -0.88906787   26.93294025
     atom   20 type  4   force =    24.86008351    1.06438436  -26.92420140
     atom   21 type  4   force =   -24.82989169   -0.78365642   27.17857301
     atom   22 type  4   force =   -24.77044245    1.16888471  -27.17468436
     atom   23 type  5   force =    -3.95943775   -0.91805263    0.07079195
     The core correction contribution to forces
     atom    1 type  1   force =     0.00025362    0.00464062    0.00078285
     atom    2 type  1   force =    -0.01144509   -0.00096732    0.00109039
     atom    3 type  1   force =    -0.00924089    0.00450164   -0.00196734
     atom    4 type  1   force =     0.01318711   -0.00714092    0.00135021
     atom    5 type  1   force =    -0.00136263    0.00636310   -0.00126914
     atom    6 type  2   force =    -0.00022443    0.00324894    0.00208891
     atom    7 type  2   force =     0.00020049   -0.00421437   -0.00209872
     atom    8 type  3   force =    -0.02953455   -0.00001049   -0.00027966
     atom    9 type  3   force =     0.01433806   -0.00782901   -0.00122062
     atom   10 type  3   force =    -0.02702712    0.00697823   -0.01602411
     atom   11 type  3   force =    -0.02859950    0.00754893    0.01691067
     atom   12 type  3   force =    -0.02386574   -0.00794952   -0.01544496
     atom   13 type  3   force =    -0.02451762   -0.00623704    0.01644632
     atom   14 type  3   force =     0.02572544    0.00585472   -0.01730077
     atom   15 type  3   force =     0.02711550    0.00743359    0.01747187
     atom   16 type  3   force =     0.02557520   -0.00723679   -0.01360623
     atom   17 type  3   force =     0.02514264   -0.00558638    0.01468183
     atom   18 type  4   force =     0.00027663   -0.00435345    0.00330927
     atom   19 type  4   force =    -0.01006094    0.00052005   -0.00881054
     atom   20 type  4   force =    -0.01006003   -0.00045133    0.00868238
     atom   21 type  4   force =     0.01033631    0.00048673   -0.00794187
     atom   22 type  4   force =     0.01023758   -0.00047646    0.00763394
     atom   23 type  5   force =     0.00000000    0.00000000    0.00000000
     The Hubbard contrib.    to forces
     atom    1 type  1   force =     0.00000000    0.00000000    0.00000000
     atom    2 type  1   force =     0.00000000    0.00000000    0.00000000
     atom    3 type  1   force =     0.00000000    0.00000000    0.00000000
     atom    4 type  1   force =     0.00000000    0.00000000    0.00000000
     atom    5 type  1   force =     0.00000000    0.00000000    0.00000000
     atom    6 type  2   force =     0.00000000    0.00000000    0.00000000
     atom    7 type  2   force =     0.00000000    0.00000000    0.00000000
     atom    8 type  3   force =     0.00000000    0.00000000    0.00000000
     atom    9 type  3   force =     0.00000000    0.00000000    0.00000000
     atom   10 type  3   force =     0.00000000    0.00000000    0.00000000
     atom   11 type  3   force =     0.00000000    0.00000000    0.00000000
     atom   12 type  3   force =     0.00000000    0.00000000    0.00000000
     atom   13 type  3   force =     0.00000000    0.00000000    0.00000000
     atom   14 type  3   force =     0.00000000    0.00000000    0.00000000
     atom   15 type  3   force =     0.00000000    0.00000000    0.00000000
     atom   16 type  3   force =     0.00000000    0.00000000    0.00000000
     atom   17 type  3   force =     0.00000000    0.00000000    0.00000000
     atom   18 type  4   force =     0.00000000    0.00000000    0.00000000
     atom   19 type  4   force =     0.00000000    0.00000000    0.00000000
     atom   20 type  4   force =     0.00000000    0.00000000    0.00000000
     atom   21 type  4   force =     0.00000000    0.00000000    0.00000000
     atom   22 type  4   force =     0.00000000    0.00000000    0.00000000
     atom   23 type  5   force =     0.00000000    0.00000000    0.00000000
     The SCF correction term to forces
     atom    1 type  1   force =     0.00000000    0.00000000   -0.00000000
     atom    2 type  1   force =    -0.00000000    0.00000000   -0.00000000
     atom    3 type  1   force =    -0.00000000    0.00000000   -0.00000000
     atom    4 type  1   force =    -0.00000000    0.00000000   -0.00000000
     atom    5 type  1   force =    -0.00000000    0.00000000   -0.00000000
     atom    6 type  2   force =     0.00000000   -0.00000000   -0.00000000
     atom    7 type  2   force =     0.00000000   -0.00000000   -0.00000000
     atom    8 type  3   force =     0.00000000   -0.00000000   -0.00000000
     atom    9 type  3   force =    -0.00000000    0.00000000   -0.00000000
     atom   10 type  3   force =    -0.00309493   -0.00399307    0.00583763
     atom   11 type  3   force =     0.00320299    0.00422254    0.00354766
     atom   12 type  3   force =    -0.00185284    0.00400110    0.00506268
     atom   13 type  3   force =     0.00269019   -0.00343812    0.00451924
     atom   14 type  3   force =     0.00408800   -0.00684581    0.00492804
     atom   15 type  3   force =    -0.00281753    0.00411087    0.00384328
     atom   16 type  3   force =     0.00431822    0.00456814    0.00519257
     atom   17 type  3   force =    -0.00193313   -0.00411284    0.00450283
     atom   18 type  4   force =     0.00286378    0.00351900   -0.00642347
     atom   19 type  4   force =    -0.00627653   -0.00015743    0.00451904
     atom   20 type  4   force =     0.00523121   -0.00073016    0.00198147
     atom   21 type  4   force =     0.00666336    0.00121441    0.00488882
     atom   22 type  4   force =    -0.00507293   -0.00016291    0.00132914
     atom   23 type  5   force =    -0.00003907   -0.00031308   -0.00138575

     Total force =     0.480273     Total SCF correction =     0.025933

     Entering Dynamics:    iteration =    10
                           time      =   0.0020 pico-seconds

ATOMIC_POSITIONS (angstrom)
Hf            2.6699999570        2.8271230292        6.6039642186    0   0   0
Hf            1.2529906802        1.2862841814        5.0584662261    0   0   0
Hf            1.2554868986        7.3898042948        5.0880677674    0   0   0
Hf            4.0870092338        1.2862841814        5.0584662261    0   0   0
Hf            4.0845130154        7.3898042948        5.0880677674    0   0   0
Nb            2.6699999570        2.7969306055        3.5155832167    0   0   0
Nb            2.6699999570        5.8763786763        6.6349979432    0   0   0
Ta            1.2093730560        4.3409278516        5.0711258323    0   0   0
Ta            4.1306268580        4.3409278516        5.0711258323    0   0   0
Ta            1.3071419444        1.3140691391        2.0586028417
Ta            1.3026783960        1.3083175547        8.0947476151
Ta            1.3039433640        7.3759031255        2.0460716313
Ta            1.3076427871        7.3651408024        8.0861672796
Ta            4.0328227951        1.3140572061        2.0586089996
Ta            4.0372943553        1.3083097583        8.0947436128
Ta            4.0360614036        7.3759131952        2.0460787850
Ta            4.0323597736        7.3651514216        8.0861661192
Zr            2.6699718843        5.8663952423        3.5272991822
Zr            1.2429984839        4.3220459475        1.9993332150
Zr            1.2395259984        4.3541422528        8.1504269853
Zr            4.0969579656        4.3220407418        1.9993357350
Zr            4.1004407816        4.3541429709        8.1504177032
H             4.5732180326        5.8548017519        5.0705892938

     kinetic energy (Ekin) =           1.74443657 Ry
     temperature           =       13115.46431113 K
     Ekin + Etot (const)   =       -2941.46831027 Ry

     The maximum number of steps has been reached.

     End of molecular dynamics calculation

     diffusion coefficients :
     atom     1   D =       0.00000000 cm^2/s
     atom     2   D =       0.00000000 cm^2/s
     atom     3   D =       0.00000000 cm^2/s
     atom     4   D =       0.00000000 cm^2/s
     atom     5   D =       0.00000000 cm^2/s
     atom     6   D =       0.00000000 cm^2/s
     atom     7   D =       0.00000000 cm^2/s
     atom     8   D =       0.00000000 cm^2/s
     atom     9   D =       0.00000000 cm^2/s
     atom    10   D =       0.00000000 cm^2/s
     atom    11   D =       0.00000000 cm^2/s
     atom    12   D =       0.00000000 cm^2/s
     atom    13   D =       0.00000000 cm^2/s
     atom    14   D =       0.00000000 cm^2/s
     atom    15   D =       0.00000000 cm^2/s
     atom    16   D =       0.00000000 cm^2/s
     atom    17   D =       0.00000000 cm^2/s
     atom    18   D =       0.00000000 cm^2/s
     atom    19   D =       0.00000001 cm^2/s
     atom    20   D =       0.00000001 cm^2/s
     atom    21   D =       0.00000001 cm^2/s
     atom    22   D =       0.00000001 cm^2/s
     atom    23   D =       0.00592512 cm^2/s

     < D > =       0.00042323 cm^2/s

     Writing all to output data dir outdir/pwscf.save/

     General routines

     Parallel routines

   This run was terminated on:   9: 0:21  11Jun2023

   JOB DONE.