     Program PWSCF v.7.2 starts on  5Jun2023 at 18:58:35

     Reading input from relax_Hf5Nb2Ta10Zr5.in
Warning: card &CELL ignored
Warning: card / ignored

     Current dimensions of program PWSCF are:
     Max number of different atomic species (ntypx) = 10
     Max number of k-points (npk) =  40000
     Max angular momentum in pseudopotentials (lmaxx) =  4

     gamma-point specific algorithms are used
     Message from routine setup:
     using ibrav=0 with symmetry is DISCOURAGED, use correct ibrav instead

     R & G space division:  proc/nbgrp/npool/nimage =      12
     Subspace diagonalization in iterative solution of the eigenvalue problem:
     one sub-group per band group will be used

     Using Slab Decomposition

     bravais-lattice index     =            0
     lattice parameter (alat)  =      10.0911  a.u.
     unit-cell volume          =    2715.0466 (a.u.)^3
     number of atoms/cell      =           22
     number of atomic types    =            4
     number of electrons       =       276.00
     number of Kohn-Sham states=          166
     kinetic-energy cutoff     =     120.0000  Ry
     charge density cutoff     =     960.0000  Ry
     scf convergence threshold =      1.0E-06
     mixing beta               =       0.7000
     number of iterations used =            8  plain     mixing
     energy convergence thresh.=      1.0E-03
     force convergence thresh. =      1.0E-02
     Exchange-correlation= SLA  PW   PBE  PBE
                           (   1   4   3   4   0   0   0)
     nstep                     =           50

     celldm(1)=  10.091137  celldm(2)=   0.000000  celldm(3)=   0.000000
     celldm(4)=   0.000000  celldm(5)=   0.000000  celldm(6)=   0.000000

     crystal axes: (cart. coord. in units of alat)
               a(1) = (   1.000000   0.000000   0.000000 )
               a(2) = (   0.000000   1.625468   0.000000 )
               a(3) = (   0.000000   0.000000   1.625468 )

     reciprocal axes: (cart. coord. in units 2 pi/alat)
               b(1) = (  1.000000  0.000000  0.000000 )
               b(2) = (  0.000000  0.615207  0.000000 )
               b(3) = (  0.000000  0.000000  0.615207 )

     PseudoPot. # 1 for Hf read from file:
     q-e/pseudo/hf_pbe_v1.uspp.F.UPF
     MD5 check sum: 8ee9378dfe14276e333edf04c5e4aa26
     Pseudo is Ultrasoft + core correction, Zval = 12.0
     Generated by new atomic code, or converted to UPF format
     Using radial grid of  921 points,  8 beta functions with:
                l(1) =   0
                l(2) =   0
                l(3) =   0
                l(4) =   1
                l(5) =   1
                l(6) =   2
                l(7) =   2
                l(8) =   3
     Q(r) pseudized with  6 coefficients,  rinner =    1.200   1.200   1.200
                                                       1.200   1.200   1.200
                                                       1.200

     PseudoPot. # 2 for Nb read from file:
     q-e/pseudo/nb_pbe_v1.uspp.F.UPF
     MD5 check sum: 573aab8a2fa660278ed4a62cd769473f
     Pseudo is Ultrasoft + core correction, Zval = 13.0
     Generated by new atomic code, or converted to UPF format
     Using radial grid of  887 points,  6 beta functions with:
                l(1) =   0
                l(2) =   0
                l(3) =   1
                l(4) =   1
                l(5) =   2
                l(6) =   2
     Q(r) pseudized with  6 coefficients,  rinner =    1.000   1.000   1.000
                                                       1.000   1.000

     PseudoPot. # 3 for Ta read from file:
     q-e/pseudo/ta_pbe_v1.uspp.F.UPF
     MD5 check sum: f8bbe9446314a3b8ea5d9f3e3836c939
     Pseudo is Ultrasoft + core correction, Zval = 13.0
     Generated by new atomic code, or converted to UPF format
     Using radial grid of  921 points,  7 beta functions with:
                l(1) =   0
                l(2) =   0
                l(3) =   1
                l(4) =   1
                l(5) =   2
                l(6) =   2
                l(7) =   3
     Q(r) pseudized with  6 coefficients,  rinner =    1.300   1.300   1.300
                                                       1.300   1.300   1.300
                                                       1.300

     PseudoPot. # 4 for Zr read from file:
     q-e/pseudo/zr_pbe_v1.uspp.F.UPF
     MD5 check sum: 5db81b1e868ab7776c4564c113de050b
     Pseudo is Ultrasoft + core correction, Zval = 12.0
     Generated by new atomic code, or converted to UPF format
     Using radial grid of  887 points,  6 beta functions with:
                l(1) =   0
                l(2) =   0
                l(3) =   1
                l(4) =   1
                l(5) =   2
                l(6) =   2
     Q(r) pseudized with  6 coefficients,  rinner =    1.200   1.200   1.200
                                                       1.200   1.200

     atomic species   valence    mass     pseudopotential
        Hf            12.00   178.49000     Hf( 1.00)
        Nb            13.00    92.90637     Nb( 1.00)
        Ta            13.00   180.94788     Ta( 1.00)
        Zr            12.00    91.22400     Zr( 1.00)

      2 Sym. Ops. (no inversion) found

   Cartesian axes

     site n.     atom                  positions (alat units)
         1           Hf  tau(   1) = (   0.5000000   0.5000000   1.1254682  )
         2           Hf  tau(   2) = (   0.1872659   0.1872659   0.8127341  )
         3           Hf  tau(   3) = (   0.1872659   1.4382022   0.8127341  )
         4           Hf  tau(   4) = (   0.8127341   0.1872659   0.8127341  )
         5           Hf  tau(   5) = (   0.8127341   1.4382022   0.8127341  )
         6           Nb  tau(   6) = (   0.5000000   0.5000000   0.5000000  )
         7           Nb  tau(   7) = (   0.5000000   1.1254682   1.1254682  )
         8           Ta  tau(   8) = (   0.1872659   0.8127341   0.8127341  )
         9           Ta  tau(   9) = (   0.8127341   0.8127341   0.8127341  )
        10           Ta  tau(  10) = (   0.1872659   0.1872659   0.1872659  )
        11           Ta  tau(  11) = (   0.1872659   0.1872659   1.4382022  )
        12           Ta  tau(  12) = (   0.1872659   1.4382022   0.1872659  )
        13           Ta  tau(  13) = (   0.1872659   1.4382022   1.4382022  )
        14           Ta  tau(  14) = (   0.8127341   0.1872659   0.1872659  )
        15           Ta  tau(  15) = (   0.8127341   0.1872659   1.4382022  )
        16           Ta  tau(  16) = (   0.8127341   1.4382022   0.1872659  )
        17           Ta  tau(  17) = (   0.8127341   1.4382022   1.4382022  )
        18           Zr  tau(  18) = (   0.5000000   1.1254682   0.5000000  )
        19           Zr  tau(  19) = (   0.1872659   0.8127341   0.1872659  )
        20           Zr  tau(  20) = (   0.1872659   0.8127341   1.4382022  )
        21           Zr  tau(  21) = (   0.8127341   0.8127341   0.1872659  )
        22           Zr  tau(  22) = (   0.8127341   0.8127341   1.4382022  )

     number of k points=     1  Gaussian smearing, width (Ry)=  0.0220
                       cart. coord. in units 2pi/alat
        k(    1) = (   0.0000000   0.0000000   0.0000000), wk =   2.0000000

     Initial potential from superposition of free atoms

     starting charge     265.9727, renormalised to     276.0000

     negative rho (up, down):  1.802E+00 0.000E+00
     Starting wfcs are  286 randomized atomic wfcs

     Self-consistent Calculation

     iteration #  1     ecut=   120.00 Ry     beta= 0.70
     Davidson diagonalization with overlap
     ethr =  1.00E-02,  avg # of iterations =  5.0

     negative rho (up, down):  1.691E+00 0.000E+00

     total energy              =   -2473.20583745 Ry
     estimated scf accuracy    <     581.02911529 Ry

[...]

     End of self-consistent calculation

          k = 0.0000 0.0000 0.0000 ( 30122 PWs)   bands (ev):

   -51.7849 -50.6742 -50.6468 -50.6161 -50.2483 -49.5422 -49.5102 -49.4831
   -49.1258 -48.3789 -44.7753 -43.3997 -43.3911 -43.2892 -42.0055 -36.5203
   -36.5121 -32.4250 -30.3630 -30.3589 -30.0654 -28.2162 -20.9464 -20.9343
   -20.6969 -19.8607 -19.8450 -19.8351 -19.6586 -19.6363 -19.6107 -19.3619
   -18.7160 -18.6913 -18.6895 -16.6300 -16.5994 -16.4043 -16.0509 -15.6699
   -15.6386 -15.0574 -15.0387 -15.0350 -14.9779 -14.8844 -14.1604 -14.1539
   -14.1360 -14.0972 -14.0755 -14.0426 -13.8043 -13.3234 -13.2559 -13.2189
   -13.0083 -12.7644 -12.6990 -12.6602 -12.6479 -12.6383 -12.5781 -12.5646
   -12.2278 -12.0591 -12.0329 -11.9164 -11.6928 -11.6926 -11.0199 -10.9142
   -10.5870 -10.0086  -9.6903  -9.2894  -8.9690  -8.6714  -8.2544  -8.2313
    -8.2008  -7.8457  -7.8386  -6.5751  -5.9177  -5.6247  -4.6806  -4.4199
     9.3515  10.5950  10.6044  11.2547  12.2320  12.4488  12.4534  12.5597
    12.7197  12.9545  13.1459  13.2100  13.8019  13.8687  14.0775  14.2583
    14.3425  14.5890  14.6238  14.7032  14.9110  14.9807  14.9900  15.0766
    15.0890  15.3368  15.4842  15.5022  15.6033  16.2449  16.2711  16.3032
    16.4057  16.7011  16.8369  16.8964  16.9990  17.1397  17.2595  17.2689
    17.3193  17.4273  17.4625  17.4868  17.6669  17.8271  17.8998  18.0194
    18.0697  18.1327  18.2545  18.2792  18.3679  18.5289  18.8279  18.9295
    18.9743  19.0925  19.2311  19.2585  19.2791  19.5422  19.5722  19.6085
    19.6406  19.6884  19.8105  19.9859  20.0611  20.2869  20.3032  20.3764
    20.4644  20.6317  20.6806  20.8237  20.9418  21.0095

     the Fermi energy is    18.1944 ev

!    total energy              =   -2937.83704721 Ry
     estimated scf accuracy    <       0.00000063 Ry
     smearing contrib. (-TS)   =      -0.07525895 Ry
     internal energy E=F+TS    =   -2937.76178826 Ry

     The total energy is F=E-TS. E is the sum of the following terms:
     one-electron contribution =    -776.88195836 Ry
     hartree contribution      =     526.44121328 Ry
     xc contribution           =    -937.70556524 Ry
     ewald contribution        =   -1749.61547794 Ry

     convergence has been achieved in  36 iterations

[...]

     Forces acting on atoms (cartesian axes, Ry/au):

     atom    1 type  1   force =     0.00000000   -0.00285749   -0.01069439
     atom    2 type  1   force =     0.65782406    0.63447584   -0.01083268
     atom    3 type  1   force =     0.66408726   -0.63395571    0.01401263
     atom    4 type  1   force =    -0.65782406    0.63447584   -0.01083268
     atom    5 type  1   force =    -0.66408726   -0.63395571    0.01401263
     atom    6 type  2   force =     0.00000000    0.00074926    0.02564970
     atom    7 type  2   force =     0.00000000   -0.00143657   -0.02457032
     atom    8 type  3   force =     0.67480745   -0.00084910    0.00088296
     atom    9 type  3   force =    -0.67480745   -0.00084910    0.00088296
     atom   10 type  3   force =     0.80672852    0.86781074    0.87452301
     atom   11 type  3   force =     0.80177893    0.86248053   -0.86990134
     atom   12 type  3   force =     0.80546260   -0.86340515    0.87103877
     atom   13 type  3   force =     0.80682522   -0.86641039   -0.87620495
     atom   14 type  3   force =    -0.80672852    0.86781074    0.87452301
[...]

[...]

     Self-consistent Calculation

[...]

     total energy              =   -2944.36107375 Ry
     estimated scf accuracy    <       0.00000002 Ry

     iteration # 17     ecut=   120.00 Ry     beta= 0.70
     Davidson diagonalization with overlap
     ethr =  4.40E-12,  avg # of iterations =  2.0

[...]

     End of self-consistent calculation

          k = 0.0000 0.0000 0.0000 ( 30122 PWs)   bands (ev):

   -49.3311 -49.3181 -49.2728 -49.2095 -49.1977 -49.1617 -49.1542 -49.1334
   -49.0901 -49.0434 -42.8551 -42.7293 -42.6462 -42.5224 -42.1335 -35.4225
   -35.4117 -29.9828 -29.6885 -29.5384 -29.2460 -29.1459 -17.0576 -16.6331
   -16.5377 -16.4547 -16.4166 -16.3475 -16.3324 -16.3050 -16.2936 -16.2579
   -16.1612 -16.1460 -16.1108 -16.0537 -16.0096 -15.8072 -15.7576 -15.6002
   -15.5784 -15.5693 -15.4499 -15.4469 -15.4239 -15.4175 -15.2663 -15.0776
   -15.0366 -14.9816 -14.9135 -14.8592 -13.0289 -12.7138 -12.4907 -12.4098
   -12.1994 -11.9944 -11.9756 -11.8522 -11.7208 -11.6859 -11.5635 -11.5458
   -11.3871 -11.2639 -11.1424 -11.0793 -11.0070 -10.7992 -10.7961 -10.4349
   -10.2994  -9.1758  -9.0504  -8.7655  -8.6883  -8.1516  -7.9336  -7.8236
    -7.5794  -7.5492  -7.3669  -7.2462  -6.8682  -6.8578  -6.5212  -6.3349
    11.0957  13.0080  13.3969  13.4786  13.5240  13.6215  13.8234  13.9236
    14.0007  14.4477  14.5732  14.6317  14.7265  14.8134  14.9537  15.0064
    15.0531  15.1057  15.3953  15.4316  15.4806  15.6197  15.6324  15.7812
    15.9115  15.9935  16.0211  16.0685  16.1665  16.1991  16.2447  16.3457
    16.4169  16.4496  16.6491  16.6806  16.7471  16.7752  16.8055  16.8378
    16.8686  16.9521  16.9708  17.6016  17.7735  17.9311  18.0980  18.1915
    18.2670  18.4352  18.4617  18.8145  19.0020  19.0557  19.1117  19.1628
    19.3890  19.5021  19.7109  19.7876  19.8712  19.9463  19.9729  20.1461
    20.1738  20.2063  20.2925  20.4269  20.5179  20.5593  20.5978  20.7100
    20.7457  20.8403  21.0462  21.1089  21.1813  21.5254

     the Fermi energy is    18.4945 ev

!    total energy              =   -2944.36107375 Ry
     estimated scf accuracy    <          2.3E-09 Ry
     smearing contrib. (-TS)   =      -0.04345691 Ry
     internal energy E=F+TS    =   -2944.31761684 Ry

     The total energy is F=E-TS. E is the sum of the following terms:
     one-electron contribution =    -447.48663167 Ry
     hartree contribution      =     365.55074375 Ry
     xc contribution           =    -932.01211823 Ry
     ewald contribution        =   -1930.36961070 Ry

     convergence has been achieved in  17 iterations

     negative rho (up, down):  1.799E+00 0.000E+00

     Forces acting on atoms (cartesian axes, Ry/au):

     atom    1 type  1   force =     0.00000000    0.00108975   -0.00155703
     atom    2 type  1   force =    -0.00056237   -0.00126964    0.00003305
     atom    3 type  1   force =    -0.00051209    0.00071345    0.00031848
     atom    4 type  1   force =     0.00056237   -0.00126964    0.00003305
     atom    5 type  1   force =     0.00051209    0.00071345    0.00031848
     atom    6 type  2   force =     0.00000000   -0.00046192    0.00112916
     atom    7 type  2   force =     0.00000000   -0.00033684   -0.00039998
     atom    8 type  3   force =    -0.00128048    0.00038640   -0.00056604
     atom    9 type  3   force =     0.00128048    0.00038640   -0.00056604
     atom   10 type  3   force =    -0.00150116   -0.00059749   -0.00048471
     atom   11 type  3   force =    -0.00203586   -0.00031300    0.00022315
     atom   12 type  3   force =    -0.00227237    0.00062215   -0.00060157
     atom   13 type  3   force =    -0.00143754    0.00082978    0.00023946
     atom   14 type  3   force =     0.00150116   -0.00059749   -0.00048471
     atom   15 type  3   force =     0.00203586   -0.00031300    0.00022315
     atom   16 type  3   force =     0.00227237    0.00062215   -0.00060157
     atom   17 type  3   force =     0.00143754    0.00082978    0.00023946
     atom   18 type  4   force =     0.00000000   -0.00040503    0.00085597
     atom   19 type  4   force =    -0.00031303   -0.00050047    0.00033115
     atom   20 type  4   force =    -0.00046315    0.00018584    0.00049297
     atom   21 type  4   force =     0.00031303   -0.00050047    0.00033115
     atom   22 type  4   force =     0.00046315    0.00018584    0.00049297
     The non-local contrib.  to forces
     atom    1 type  1   force =     0.00000000   -0.04258340    0.04852443
     atom    2 type  1   force =    -0.12397075   -0.12829555    0.01140775
     atom    3 type  1   force =    -0.11307951    0.12398976   -0.02763932
     atom    4 type  1   force =     0.12397075   -0.12829555    0.01140775
     atom    5 type  1   force =     0.11307951    0.12398976   -0.02763932
     atom    6 type  2   force =     0.00000000   -0.05082961   -0.04705161
     atom    7 type  2   force =     0.00000000    0.06855022    0.02640323
     atom    8 type  3   force =    -0.16855383    0.00123587   -0.00315267
     atom    9 type  3   force =     0.16855383    0.00123587   -0.00315267
     atom   10 type  3   force =     0.01352559    0.01897744    0.02313147
     atom   11 type  3   force =     0.00462748    0.01918399   -0.01889902
     atom   12 type  3   force =     0.02653409   -0.03243378    0.03334959
     atom   13 type  3   force =     0.01480075   -0.02341493   -0.01826123
     atom   14 type  3   force =    -0.01352559    0.01897744    0.02313147
     atom   15 type  3   force =    -0.00462748    0.01918399   -0.01889902
     atom   16 type  3   force =    -0.02653409   -0.03243378    0.03334959
     atom   17 type  3   force =    -0.01480075   -0.02341493   -0.01826123
     atom   18 type  4   force =     0.00000000    0.05955894   -0.04732109
     atom   19 type  4   force =    -0.00277448   -0.00984648   -0.09639895
     atom   20 type  4   force =    -0.01128294    0.00721019    0.10392646
     atom   21 type  4   force =     0.00277448   -0.00984648   -0.09639895
     atom   22 type  4   force =     0.01128294    0.00721019    0.10392646
     The ionic contribution  to forces
     atom    1 type  1   force =     0.00000000   -4.76296031    4.69498776
     atom    2 type  1   force =    -5.03162402   -6.35148022    0.93937353
     atom    3 type  1   force =    -5.09350062    6.33116593   -0.89224995
     atom    4 type  1   force =     5.03162402   -6.35148022    0.93937353
     atom    5 type  1   force =     5.09350062    6.33116593   -0.89224995
     atom    6 type  2   force =     0.00000000   -3.70708160   -3.66490978
     atom    7 type  2   force =     0.00000000    3.73904070    3.65169618
     atom    8 type  3   force =   -11.22816925    0.07856232   -0.05776786
     atom    9 type  3   force =    11.22816925    0.07856232   -0.05776786
     atom   10 type  3   force =    -3.89508334   -1.49601377   -1.57615866
     atom   11 type  3   force =    -3.09558478   -0.23757891    0.26959075
     atom   12 type  3   force =    -3.24456919    0.19802837   -0.28161819
     atom   13 type  3   force =    -3.91096473    1.55322061    1.50586934
     atom   14 type  3   force =     3.89508334   -1.49601377   -1.57615866
     atom   15 type  3   force =     3.09558478   -0.23757891    0.26959075
     atom   16 type  3   force =     3.24456919    0.19802837   -0.28161819
     atom   17 type  3   force =     3.91096473    1.55322061    1.50586934
     atom   18 type  4   force =     0.00000000    4.53706172   -4.46372405
     atom   19 type  4   force =    -4.72586432    0.91284160   -5.62983912
     atom   20 type  4   force =    -4.62688260   -0.89177619    5.61377510
     atom   21 type  4   force =     4.72586432    0.91284160   -5.62983912
     atom   22 type  4   force =     4.62688260   -0.89177619    5.61377510
     The local contribution  to forces
     atom    1 type  1   force =     0.00000145    4.80528084   -4.74571457
     atom    2 type  1   force =     5.16306286    6.47200220   -0.95290677
     atom    3 type  1   force =     5.21480393   -6.44901647    0.92401677
     atom    4 type  1   force =    -5.16306299    6.47200247   -0.95290638
     atom    5 type  1   force =    -5.21480409   -6.44901684    0.92401705
     atom    6 type  2   force =     0.00000093    3.75569174    3.71205005
     atom    7 type  2   force =     0.00000161   -3.80523480   -3.67852325
     atom    8 type  3   force =    11.40476667   -0.07957062    0.06089336
     atom    9 type  3   force =   -11.40476719   -0.07957062    0.06089365
     atom   10 type  3   force =     3.87822369    1.47156745    1.54896897
     atom   11 type  3   force =     3.08281778    0.21187730   -0.24545402
     atom   12 type  3   force =     3.20901414   -0.15775872    0.24137689
     atom   13 type  3   force =     3.89280362   -1.52489565   -1.48325620
     atom   14 type  3   force =    -3.87822378    1.47156758    1.54896849
     atom   15 type  3   force =    -3.08281797    0.21187734   -0.24545414
     atom   16 type  3   force =    -3.20901420   -0.15775875    0.24137662
     atom   17 type  3   force =    -3.89280378   -1.52489549   -1.48325639
     atom   18 type  4   force =     0.00000089   -4.59417908    4.51005637
     atom   19 type  4   force =     4.73065610   -0.90456069    5.72385281
     atom   20 type  4   force =     4.63975198    0.88540060   -5.71423988
     atom   21 type  4   force =    -4.73065632   -0.90456083    5.72385275
     atom   22 type  4   force =    -4.63975230    0.88540046   -5.71424022
     The core correction contribution to forces
     atom    1 type  1   force =     0.00000001    0.00133147    0.00061328
     atom    2 type  1   force =    -0.00803975    0.00648015    0.00214053
     atom    3 type  1   force =    -0.00874006   -0.00536785   -0.00375739
     atom    4 type  1   force =     0.00803975    0.00648015    0.00214053
     atom    5 type  1   force =     0.00874007   -0.00536785   -0.00375738
     atom    6 type  2   force =    -0.00000000    0.00165705    0.00106374
     atom    7 type  2   force =     0.00000000   -0.00263444    0.00007032
     atom    8 type  3   force =    -0.00932507    0.00012784   -0.00049908
     atom    9 type  3   force =     0.00932508    0.00012784   -0.00049909
     atom   10 type  3   force =     0.00183239    0.00484203    0.00361408
     atom   11 type  3   force =     0.00609601    0.00613761   -0.00502603
     atom   12 type  3   force =     0.00673892   -0.00713101    0.00625124
     atom   13 type  3   force =     0.00192541   -0.00406684   -0.00415042
     atom   14 type  3   force =    -0.00183239    0.00484203    0.00361407
     atom   15 type  3   force =    -0.00609601    0.00613761   -0.00502603
     atom   16 type  3   force =    -0.00673892   -0.00713101    0.00625124
     atom   17 type  3   force =    -0.00192540   -0.00406684   -0.00415041
     atom   18 type  4   force =    -0.00000000   -0.00282073    0.00187604
     atom   19 type  4   force =    -0.00233563    0.00102766    0.00270252
     atom   20 type  4   force =    -0.00205138   -0.00060882   -0.00300033
     atom   21 type  4   force =     0.00233564    0.00102766    0.00270251
     atom   22 type  4   force =     0.00205138   -0.00060883   -0.00300033
     The Hubbard contrib.    to forces
     atom    1 type  1   force =     0.00000000    0.00000000    0.00000000
     atom    2 type  1   force =     0.00000000    0.00000000    0.00000000
     atom    3 type  1   force =     0.00000000    0.00000000    0.00000000
     atom    4 type  1   force =     0.00000000    0.00000000    0.00000000
     atom    5 type  1   force =     0.00000000    0.00000000    0.00000000
     atom    6 type  2   force =     0.00000000    0.00000000    0.00000000
     atom    7 type  2   force =     0.00000000    0.00000000    0.00000000
     atom    8 type  3   force =     0.00000000    0.00000000    0.00000000
     atom    9 type  3   force =     0.00000000    0.00000000    0.00000000
     atom   10 type  3   force =     0.00000000    0.00000000    0.00000000
     atom   11 type  3   force =     0.00000000    0.00000000    0.00000000
     atom   12 type  3   force =     0.00000000    0.00000000    0.00000000
     atom   13 type  3   force =     0.00000000    0.00000000    0.00000000
     atom   14 type  3   force =     0.00000000    0.00000000    0.00000000
     atom   15 type  3   force =     0.00000000    0.00000000    0.00000000
     atom   16 type  3   force =     0.00000000    0.00000000    0.00000000
     atom   17 type  3   force =     0.00000000    0.00000000    0.00000000
     atom   18 type  4   force =     0.00000000    0.00000000    0.00000000
     atom   19 type  4   force =     0.00000000    0.00000000    0.00000000
     atom   20 type  4   force =     0.00000000    0.00000000    0.00000000
     atom   21 type  4   force =     0.00000000    0.00000000    0.00000000
     atom   22 type  4   force =     0.00000000    0.00000000    0.00000000
     The SCF correction term to forces
     atom    1 type  1   force =    -0.00000134    0.00002143    0.00003219
     atom    2 type  1   force =     0.00000929    0.00002406    0.00001813
     atom    3 type  1   force =     0.00000417   -0.00005763   -0.00005151
     atom    4 type  1   force =    -0.00000917    0.00002380    0.00001775
     atom    5 type  1   force =    -0.00000403   -0.00005729   -0.00005181
     atom    6 type  2   force =    -0.00000094    0.00010080   -0.00002312
     atom    7 type  2   force =    -0.00000156   -0.00005824   -0.00004634
     atom    8 type  3   force =     0.00000099    0.00003128   -0.00003965
     atom    9 type  3   force =    -0.00000049    0.00003126   -0.00003997
     atom   10 type  3   force =     0.00000050    0.00002965   -0.00004045
     atom   11 type  3   force =     0.00000764    0.00006730    0.00001158
     atom   12 type  3   force =     0.00000968   -0.00008242    0.00003900
     atom   13 type  3   force =    -0.00000261   -0.00001314    0.00003808
     atom   14 type  3   force =    -0.00000042    0.00002952   -0.00003997
     atom   15 type  3   force =    -0.00000748    0.00006726    0.00001169
     atom   16 type  3   force =    -0.00000961   -0.00008241    0.00003929
     atom   17 type  3   force =     0.00000272   -0.00001328    0.00003827
     atom   18 type  4   force =    -0.00000084   -0.00002559   -0.00003117
     atom   19 type  4   force =     0.00000531    0.00003775    0.00001402
     atom   20 type  4   force =     0.00000180   -0.00003963    0.00003174
     atom   21 type  4   force =    -0.00000510    0.00003786    0.00001407
     atom   22 type  4   force =    -0.00000145   -0.00003952    0.00003206

     Total force =     0.007051     Total SCF correction =     0.000285
     Energy error            =      4.7E-04 Ry
     Gradient error          =      2.3E-03 Ry/Bohr

     bfgs converged in   7 scf cycles and   6 bfgs steps
     (criteria: energy <  1.0E-03 Ry, force <  1.0E-02 Ry/Bohr)

     End of BFGS Geometry Optimization

     Final energy             =   -2944.3610737492 Ry

     File outdir/pwscf.bfgs deleted, as requested
Begin final coordinates

ATOMIC_POSITIONS (angstrom)
Hf            2.6699999570        2.8271230292        5.8717843740
Hf            1.2529906802        1.2862841814        4.3262863815
Hf            1.2554868986        7.3898042948        4.3558879228
Hf            4.0870092338        1.2862841814        4.3262863815
Hf            4.0845130154        7.3898042948        4.3558879228
Nb            2.6699999570        2.7969306055        2.7834033721
Nb            2.6699999570        5.8763786763        5.9028180986
Ta            1.2093730560        4.3409278516        4.3389459877
Ta            4.1306268580        4.3409278516        4.3389459877
Ta            1.3072526841        1.3141225894        1.3265992655
Ta            1.3027883142        1.3083911360        7.3623993578
Ta            1.3040096221        7.3758261241        1.3140573352
Ta            1.3077107984        7.3650829484        7.3538223762
Ta            4.0327472299        1.3141225894        1.3265992655
Ta            4.0372115998        1.3083911360        7.3623993578
Ta            4.0359902919        7.3758261241        1.3140573352
Ta            4.0322891156        7.3650829484        7.3538223762
Zr            2.6699999570        5.8662858434        2.7952040858
Zr            1.2438346190        4.3220779645        1.2678201554
Zr            1.2403854127        4.3541232845        7.4175757047
Zr            4.0961652950        4.3220779645        1.2678201554
Zr            4.0996145013        4.3541232845        7.4175757047
End final coordinates

     Writing all to output data dir outdir/pwscf.save/

     General routines

     Parallel routines

   This run was terminated on:  19:49:37   5Jun2023

   JOB DONE.