     Program PWSCF v.7.2 starts on 11Jun2023 at 23:10: 7

     Reading input from md_data/md_Hf5Nb2Ta10Zr5H_20steps_100eV_incident45_polar120.in
Warning: card &CELL ignored
Warning: card / ignored

     Current dimensions of program PWSCF are:
     Max number of different atomic species (ntypx) = 10
     Max number of k-points (npk) =  40000
     Max angular momentum in pseudopotentials (lmaxx) =  4

     File outdir/pwscf.md deleted, as requested

     gamma-point specific algorithms are used

     R & G space division:  proc/nbgrp/npool/nimage =      42
     Subspace diagonalization in iterative solution of the eigenvalue problem:
     one sub-group per band group will be used

     Using Slab Decomposition

     bravais-lattice index     =            0
     lattice parameter (alat)  =      16.1383  a.u.
     unit-cell volume          =    5077.2634 (a.u.)^3
     number of atoms/cell      =           23
     number of atomic types    =            5
     number of electrons       =       277.00
     number of Kohn-Sham states=          167
     kinetic-energy cutoff     =     120.0000  Ry
     charge density cutoff     =     480.0000  Ry
     scf convergence threshold =      1.0E-03
     mixing beta               =       0.7000
     number of iterations used =            8  TF        mixing
     energy convergence thresh.=      0.0E+00
     force convergence thresh. =      0.0E+00
     Exchange-correlation=  SLA  PW   PBX  PBC
                           (   1   4   3   4   0   0   0)
     nstep                     =           20

     celldm(1)=  16.138261  celldm(2)=   0.000000  celldm(3)=   0.000000
     celldm(4)=   0.000000  celldm(5)=   0.000000  celldm(6)=   0.000000

     crystal axes: (cart. coord. in units of alat)
               a(1) = (   1.000000   0.000000   0.000000 )
               a(2) = (   0.000000   1.016393   0.000000 )
               a(3) = (   0.000000   0.000000   1.188496 )

     reciprocal axes: (cart. coord. in units 2 pi/alat)
               b(1) = (  1.000000  0.000000  0.000000 )
               b(2) = (  0.000000  0.983871  0.000000 )
               b(3) = (  0.000000  0.000000  0.841400 )

     PseudoPot. # 1 for Hf read from file:
     q-e/pseudo/hf_pbe_v1.uspp.F.UPF
     MD5 check sum: 8ee9378dfe14276e333edf04c5e4aa26
     Pseudo is Ultrasoft + core correction, Zval = 12.0
     Generated by new atomic code, or converted to UPF format
     Using radial grid of  921 points,  8 beta functions with:
                l(1) =   0
                l(2) =   0
                l(3) =   0
                l(4) =   1
                l(5) =   1
                l(6) =   2
                l(7) =   2
                l(8) =   3
     Q(r) pseudized with  6 coefficients,  rinner =    1.200   1.200   1.200
                                                       1.200   1.200   1.200
                                                       1.200

     PseudoPot. # 2 for Nb read from file:
     q-e/pseudo/nb_pbe_v1.uspp.F.UPF
     MD5 check sum: 573aab8a2fa660278ed4a62cd769473f
     Pseudo is Ultrasoft + core correction, Zval = 13.0
     Generated by new atomic code, or converted to UPF format
     Using radial grid of  887 points,  6 beta functions with:
                l(1) =   0
                l(2) =   0
                l(3) =   1
                l(4) =   1
                l(5) =   2
                l(6) =   2
     Q(r) pseudized with  6 coefficients,  rinner =    1.000   1.000   1.000
                                                       1.000   1.000

     PseudoPot. # 3 for Ta read from file:
     q-e/pseudo/ta_pbe_v1.uspp.F.UPF
     MD5 check sum: f8bbe9446314a3b8ea5d9f3e3836c939
     Pseudo is Ultrasoft + core correction, Zval = 13.0
     Generated by new atomic code, or converted to UPF format
     Using radial grid of  921 points,  7 beta functions with:
                l(1) =   0
                l(2) =   0
                l(3) =   1
                l(4) =   1
                l(5) =   2
                l(6) =   2
                l(7) =   3
     Q(r) pseudized with  6 coefficients,  rinner =    1.300   1.300   1.300
                                                       1.300   1.300   1.300
                                                       1.300

     PseudoPot. # 4 for Zr read from file:
     q-e/pseudo/zr_pbe_v1.uspp.F.UPF
     MD5 check sum: 5db81b1e868ab7776c4564c113de050b
     Pseudo is Ultrasoft + core correction, Zval = 12.0
     Generated by new atomic code, or converted to UPF format
     Using radial grid of  887 points,  6 beta functions with:
                l(1) =   0
                l(2) =   0
                l(3) =   1
                l(4) =   1
                l(5) =   2
                l(6) =   2
     Q(r) pseudized with  6 coefficients,  rinner =    1.200   1.200   1.200
                                                       1.200   1.200

     PseudoPot. # 5 for H  read from file:
     q-e/pseudo/h_pbe_v1.4.uspp.F.UPF
     MD5 check sum: 761ae9a214b05c3daf00ab9f6b793d6f
     Pseudo is Ultrasoft, Zval =  1.0
     Generated by new atomic code, or converted to UPF format
     Using radial grid of  615 points,  2 beta functions with:
                l(1) =   0
                l(2) =   0
     Q(r) pseudized with  8 coefficients,  rinner =    0.700

     atomic species   valence    mass     pseudopotential
        Hf            12.00   178.49000     Hf( 1.00)
        Nb            13.00    92.90637     Nb( 1.00)
        Ta            13.00   180.94788     Ta( 1.00)
        Zr            12.00    91.22400     Zr( 1.00)
        H              1.00     2.01400     H ( 1.00)

     Starting magnetic structure
     atomic species   magnetization
        Hf           0.000
        Nb           0.000
        Ta           0.000
        Zr           0.000
        H            0.000

     No symmetry found

   Cartesian axes

     site n.     atom                  positions (alat units)
         1           Hf  tau(   1) = (   0.3126464   0.3310449   0.7732979  )
         2           Hf  tau(   2) = (   0.1467202   0.1506188   0.5923263  )
         3           Hf  tau(   3) = (   0.1470125   0.8653167   0.5957925  )
         4           Hf  tau(   4) = (   0.4785725   0.1506188   0.5923263  )
         5           Hf  tau(   5) = (   0.4782802   0.8653167   0.5957925  )
         6           Nb  tau(   6) = (   0.3126464   0.3275094   0.4116608  )
         7           Nb  tau(   7) = (   0.3126464   0.6881006   0.7769319  )
         8           Ta  tau(   8) = (   0.1416128   0.5083054   0.5938087  )
         9           Ta  tau(   9) = (   0.4836800   0.5083054   0.5938087  )
        10           Ta  tau(  10) = (   0.1530741   0.1538785   0.2410748  )
        11           Ta  tau(  11) = (   0.1525513   0.1532074   0.9478430  )
        12           Ta  tau(  12) = (   0.1526943   0.8636799   0.2396062  )
        13           Ta  tau(  13) = (   0.1531277   0.8624219   0.9468387  )
        14           Ta  tau(  14) = (   0.4722187   0.1538785   0.2410748  )
        15           Ta  tau(  15) = (   0.4727414   0.1532074   0.9478430  )
        16           Ta  tau(  16) = (   0.4725984   0.8636799   0.2396062  )
        17           Ta  tau(  17) = (   0.4721650   0.8624219   0.9468387  )
        18           Zr  tau(  18) = (   0.3126464   0.6869187   0.4130426  )
        19           Zr  tau(  19) = (   0.1456481   0.5060981   0.2341920  )
        20           Zr  tau(  20) = (   0.1452442   0.5098505   0.9543040  )
        21           Zr  tau(  21) = (   0.4796447   0.5060981   0.2341920  )
        22           Zr  tau(  22) = (   0.4800486   0.5098505   0.9543040  )
        23           H   tau(  23) = (   0.6161590   0.4419572   0.7086623  )

     number of k points=     1  Gaussian smearing, width (Ry)=  0.0220
                       cart. coord. in units 2pi/alat
        k(    1) = (   0.0000000   0.0000000   0.0000000), wk =   1.0000000

     Check: negative core charge=   -0.000002
     Generating pointlists ...
     new r_m :   0.1222 (alat units)  1.9717 (a.u.) for type    1
     new r_m :   0.1201 (alat units)  1.9374 (a.u.) for type    2
     new r_m :   0.0773 (alat units)  1.2480 (a.u.) for type    3
     new r_m :   0.1192 (alat units)  1.9234 (a.u.) for type    4
     new r_m :   0.0773 (alat units)  1.2480 (a.u.) for type    5

     Initial potential from superposition of free atoms

     starting charge     266.9726, renormalised to     277.0000

     negative rho (up, down):  9.226E-01 9.226E-01
     Starting wfcs are  287 randomized atomic wfcs

     Self-consistent Calculation

     iteration #  1     ecut=   120.00 Ry     beta= 0.70
     Davidson diagonalization with overlap
     ethr =  1.00E-02,  avg # of iterations =  2.0

     negative rho (up, down):  9.862E-01 9.859E-01

     total energy              =   -2931.79435065 Ry
     estimated scf accuracy    <     287.91973921 Ry

     total magnetization       =    -0.00 Bohr mag/cell
     absolute magnetization    =     0.11 Bohr mag/cell

[...]

     Magnetic moment per site  (integrated on atomic sphere of radius R)
     atom   1 (R=0.122)  charge=  9.4635  magn= -0.0006
     atom   2 (R=0.122)  charge=  9.0548  magn= -0.0002
     atom   3 (R=0.122)  charge=  9.0547  magn= -0.0004
     atom   4 (R=0.122)  charge=  9.0618  magn=  0.0001
     atom   5 (R=0.122)  charge=  9.0568  magn= -0.0001
     atom   6 (R=0.120)  charge= 10.3457  magn=  0.0009
     atom   7 (R=0.120)  charge= 10.3465  magn= -0.0006
     atom   8 (R=0.077)  charge=  5.9556  magn=  0.0002
     atom   9 (R=0.077)  charge=  5.9704  magn=  0.0002
     atom  10 (R=0.077)  charge=  5.9373  magn= -0.0025
     atom  11 (R=0.077)  charge=  5.9361  magn= -0.0004
     atom  12 (R=0.077)  charge=  5.9367  magn= -0.0027
     atom  13 (R=0.077)  charge=  5.9364  magn= -0.0004
     atom  14 (R=0.077)  charge=  5.9365  magn= -0.0014
     atom  15 (R=0.077)  charge=  5.9376  magn= -0.0012
     atom  16 (R=0.077)  charge=  5.9371  magn= -0.0034
     atom  17 (R=0.077)  charge=  5.9353  magn= -0.0001
     atom  18 (R=0.119)  charge=  9.2843  magn=  0.0007
     atom  19 (R=0.119)  charge=  8.8702  magn= -0.0115
     atom  20 (R=0.119)  charge=  8.8642  magn=  0.0029
     atom  21 (R=0.119)  charge=  8.8685  magn= -0.0110
     atom  22 (R=0.119)  charge=  8.8619  magn=  0.0026
     atom  23 (R=0.077)  charge=  0.8997  magn=  0.0000

     End of self-consistent calculation

 ------ SPIN UP ------------

          k = 0.0000 0.0000 0.0000 ( 56324 PWs)   bands (ev):

   -59.7653 -59.7630 -59.7211 -59.7155 -59.6810 -59.6798 -59.6358 -59.6290
   -59.5014 -59.1881 -53.3673 -53.3215 -53.2413 -53.1966 -51.6937 -45.2045
   -45.1998 -40.6311 -40.5843 -40.5309 -40.4815 -38.7714 -26.7634 -26.7560
   -26.6746 -26.6723 -26.5771 -26.5709 -26.4503 -26.4396 -26.3428 -26.3140
   -26.2780 -26.2484 -26.2420 -26.2090 -26.1962 -26.1521 -26.1346 -26.1171
   -26.0578 -25.9490 -25.9422 -25.9376 -25.9256 -25.9037 -25.8741 -25.8632
   -25.8476 -25.8374 -25.8360 -25.8272 -23.1485 -22.9405 -22.6321 -22.5511
   -22.2962 -22.1569 -22.1223 -22.0340 -21.9093 -21.8355 -21.8196 -21.6064
   -21.4516 -21.4034 -21.3543 -21.3046 -21.2432 -21.1894 -20.7385 -20.7116
[...]

     convergence has been achieved in   5 iterations

     negative rho (up, down):  9.093E-01 9.093E-01

     Forces acting on atoms (cartesian axes, Ry/au):

     atom    1 type  1   force =    -0.02291960   -0.02028234    0.00790571
     atom    2 type  1   force =    -0.11854444   -0.01413929    0.00201476
     atom    3 type  1   force =    -0.11852616    0.01311233    0.00812886
     atom    4 type  1   force =     0.11972168   -0.02083227    0.00129714
     atom    5 type  1   force =     0.11684815    0.01349537    0.00413604
     atom    6 type  2   force =    -0.00195150   -0.01865424    0.00163855
     atom    7 type  2   force =    -0.00112936    0.01202503   -0.00651289
     atom    8 type  3   force =    -0.11949994   -0.00500549    0.00658077
     atom    9 type  3   force =    -0.11619215    0.15649582   -0.24151163
     atom   10 type  3   force =    -0.02553779   -0.02784091   -0.06478385
     atom   11 type  3   force =    -0.01341144   -0.03482147    0.05987557
     atom   12 type  3   force =    -0.01772395    0.03441632   -0.05513707
     atom   13 type  3   force =    -0.02276916    0.02643448    0.05945383
     atom   14 type  3   force =     0.02521846   -0.02738090   -0.05724541
     atom   15 type  3   force =     0.01399916   -0.04387075    0.05497545
     atom   16 type  3   force =     0.01896374    0.03068818   -0.05486985
     atom   17 type  3   force =     0.01930591    0.03246323    0.05896254
     atom   18 type  4   force =    -0.00592798    0.02327904   -0.01395662
     atom   19 type  4   force =    -0.13209209   -0.00526312   -0.11716045
     atom   20 type  4   force =    -0.13435591    0.00558586    0.11202239
     atom   21 type  4   force =     0.13150862   -0.00421989   -0.12368285
     atom   22 type  4   force =     0.14717413    0.00829153    0.10608794
     atom   23 type  5   force =     0.25784162   -0.13397653    0.25178106
     The non-local contrib.  to forces
     atom    1 type  1   force =     0.00599043   -0.00641477    0.03138538
     atom    2 type  1   force =    -0.24741402   -0.16119180    0.02246073
     atom    3 type  1   force =    -0.24415687    0.16086453   -0.02549992
     atom    4 type  1   force =     0.26920886   -0.14930153    0.03998775
     atom    5 type  1   force =     0.24159697    0.15776385   -0.01940738
     atom    6 type  2   force =    -0.00095675   -0.06286911   -0.06131853
     atom    7 type  2   force =    -0.00532784    0.06278832    0.05957159
     atom    8 type  3   force =    -0.24550083   -0.00367716    0.00159632
     atom    9 type  3   force =     0.16395855    0.02784040   -0.05142550
     atom   10 type  3   force =    -0.22476204    0.01033669   -0.21335707
     atom   11 type  3   force =    -0.21991745    0.01373044    0.19766914
     atom   12 type  3   force =    -0.21354636   -0.02064598   -0.19051542
     atom   13 type  3   force =    -0.21385937   -0.01261134    0.21010322
     atom   14 type  3   force =     0.21693327    0.00575568   -0.22211735
     atom   15 type  3   force =     0.23713528    0.01030525    0.18154036
     atom   16 type  3   force =     0.20922853   -0.02578873   -0.19332675
     atom   17 type  3   force =     0.21546902    0.00034525    0.20039675
     atom   18 type  4   force =     0.00765200    0.06486862   -0.06033762
     atom   19 type  4   force =     0.06506526    0.00813701    0.07183144
     atom   20 type  4   force =     0.05466903   -0.00753122   -0.05956987
     atom   21 type  4   force =    -0.06572140    0.00231830    0.06842581
     atom   22 type  4   force =    -0.05635247   -0.00804836   -0.07504318
     atom   23 type  5   force =    -0.07895594    0.04128176   -0.06340081
     The ionic contribution  to forces
     atom    1 type  1   force =    -0.68349074   -4.83975789   14.39587787
     atom    2 type  1   force =   -35.70194335   -6.24481465    0.70541719
     atom    3 type  1   force =   -35.66095757    6.16996223   -0.77042906
     atom    4 type  1   force =    35.38877079   -6.69568251    0.53523581
     atom    5 type  1   force =    35.50810557    6.32564648   -0.82962629
     atom    6 type  2   force =    -0.26957541   -3.61586779  -14.43543147
     atom    7 type  2   force =    -0.39913484    3.87566722   14.26784254
     atom    8 type  3   force =   -47.65952875    0.13349744   -0.19315159
     atom    9 type  3   force =    45.06357381    1.33935871   -2.32863240
     atom   10 type  3   force =   -32.18455603   -2.11514880  -23.44482924
     atom   11 type  3   force =   -31.28247216   -0.91291473   22.50340304
     atom   12 type  3   force =   -31.36613243    0.78839396  -22.48367426
     atom   13 type  3   force =   -32.17305773    2.20533996   23.45551945
     atom   14 type  3   force =    32.10849055   -2.16567403  -23.51575172
     atom   15 type  3   force =    31.07938431   -1.13155829   22.70635526
     atom   16 type  3   force =    31.30881720    0.81612330  -22.52724420
     atom   17 type  3   force =    32.05137158    2.29627867   23.54855745
     atom   18 type  4   force =    -0.16863551    4.44985806  -14.27036725
     atom   19 type  4   force =   -32.13434763    0.97934786  -25.85673492
     atom   20 type  4   force =   -32.15545852   -0.91762446   25.92434659
     atom   21 type  4   force =    32.02871605    0.99799348  -25.99511317
     atom   22 type  4   force =    31.67311669   -0.74463219   26.66399024
     atom   23 type  5   force =     5.62894410   -0.99379202    1.94444011
     The local contribution  to forces
     atom    1 type  1   force =     0.64773451    4.81586354  -14.40504920
     atom    2 type  1   force =    35.84580032    6.39260248   -0.70982834
     atom    3 type  1   force =    35.80166745   -6.32063558    0.82224773
     atom    4 type  1   force =   -35.55555098    6.82172190   -0.56136060
     atom    5 type  1   force =   -35.64924542   -6.46947568    0.86782437
     atom    6 type  2   force =     0.26387558    3.65936498   14.49837723
     atom    7 type  2   force =     0.39896612   -3.91608396  -14.31528443
     atom    8 type  3   force =    47.81458363   -0.13276593    0.21031493
     atom    9 type  3   force =   -45.36062619   -1.21516993    2.16410315
     atom   10 type  3   force =    32.41069134    2.07065369   23.59966750
     atom   11 type  3   force =    31.51208676    0.84910242  -22.65695545
     atom   12 type  3   force =    31.58882897   -0.72862787   22.62476753
     atom   13 type  3   force =    32.38826491   -2.15351846  -23.62346063
     atom   14 type  3   force =   -32.32881554    2.12826218   23.68812268
     atom   15 type  3   force =   -31.33089982    1.06173259  -22.84460612
     atom   16 type  3   force =   -31.52677876   -0.75643958   22.67297696
     atom   17 type  3   force =   -32.27211459   -2.25312705  -23.70362789
     atom   18 type  4   force =     0.15211545   -4.48911705   14.31650078
     atom   19 type  4   force =    31.95584192   -0.99239602   25.66937372
     atom   20 type  4   force =    31.97409388    0.93112911  -25.75877422
     atom   21 type  4   force =   -31.85104477   -1.00390364   25.80109035
     atom   22 type  4   force =   -31.47776813    0.76240499  -26.48749867
     atom   23 type  5   force =    -5.29143542    0.81817549   -1.62618270
     The core correction contribution to forces
     atom    1 type  1   force =     0.00238735    0.00444549   -0.00123426
     atom    2 type  1   force =    -0.01225596   -0.00155673    0.00024372
     atom    3 type  1   force =    -0.01169645    0.00289302   -0.00207321
     atom    4 type  1   force =     0.01282383   -0.00160331    0.00239578
     atom    5 type  1   force =     0.01184609    0.00220304    0.00091561
     atom    6 type  2   force =     0.00008008    0.00282396    0.00248333
     atom    7 type  2   force =     0.00023820   -0.00306846   -0.00214824
     atom    8 type  3   force =    -0.02797006   -0.00118517    0.00137812
     atom    9 type  3   force =     0.01488486    0.00574135   -0.01088307
     atom   10 type  3   force =    -0.02226680    0.01008850   -0.01568003
     atom   11 type  3   force =    -0.02350155    0.01019964    0.01691728
     atom   12 type  3   force =    -0.02219146   -0.00919012   -0.01483679
     atom   13 type  3   force =    -0.02351631   -0.00838290    0.01798241
     atom   14 type  3   force =     0.02265028    0.00875255   -0.01675630
     atom   15 type  3   force =     0.02587062    0.00986890    0.01475951
     atom   16 type  3   force =     0.02198435   -0.00909316   -0.01601600
     atom   17 type  3   force =     0.02256238   -0.00766949    0.01474215
     atom   18 type  4   force =    -0.00017265   -0.00398431    0.00337242
     atom   19 type  4   force =    -0.00988295    0.00012583   -0.00966381
     atom   20 type  4   force =    -0.00943564    0.00000293    0.00890487
     atom   21 type  4   force =     0.00987746    0.00040617   -0.00961030
     atom   22 type  4   force =     0.00993314   -0.00024276    0.00937876
     atom   23 type  5   force =     0.00000000    0.00000000    0.00000000
     The Hubbard contrib.    to forces
     atom    1 type  1   force =     0.00000000    0.00000000    0.00000000
     atom    2 type  1   force =     0.00000000    0.00000000    0.00000000
     atom    3 type  1   force =     0.00000000    0.00000000    0.00000000
     atom    4 type  1   force =     0.00000000    0.00000000    0.00000000
     atom    5 type  1   force =     0.00000000    0.00000000    0.00000000
     atom    6 type  2   force =     0.00000000    0.00000000    0.00000000
     atom    7 type  2   force =     0.00000000    0.00000000    0.00000000
     atom    8 type  3   force =     0.00000000    0.00000000    0.00000000
     atom    9 type  3   force =     0.00000000    0.00000000    0.00000000
     atom   10 type  3   force =     0.00000000    0.00000000    0.00000000
     atom   11 type  3   force =     0.00000000    0.00000000    0.00000000
     atom   12 type  3   force =     0.00000000    0.00000000    0.00000000
     atom   13 type  3   force =     0.00000000    0.00000000    0.00000000
     atom   14 type  3   force =     0.00000000    0.00000000    0.00000000
     atom   15 type  3   force =     0.00000000    0.00000000    0.00000000
     atom   16 type  3   force =     0.00000000    0.00000000    0.00000000
     atom   17 type  3   force =     0.00000000    0.00000000    0.00000000
     atom   18 type  4   force =     0.00000000    0.00000000    0.00000000
     atom   19 type  4   force =     0.00000000    0.00000000    0.00000000
     atom   20 type  4   force =     0.00000000    0.00000000    0.00000000
     atom   21 type  4   force =     0.00000000    0.00000000    0.00000000
     atom   22 type  4   force =     0.00000000    0.00000000    0.00000000
     atom   23 type  5   force =     0.00000000    0.00000000    0.00000000
     The SCF correction term to forces
     atom    1 type  1   force =     0.00000000    0.00000000   -0.00000000
     atom    2 type  1   force =    -0.00000000    0.00000000   -0.00000000
     atom    3 type  1   force =    -0.00000000   -0.00000000   -0.00000000
     atom    4 type  1   force =     0.00000000    0.00000000   -0.00000000
     atom    5 type  1   force =     0.00000000   -0.00000000   -0.00000000
     atom    6 type  2   force =     0.00000000   -0.00000000   -0.00000000
     atom    7 type  2   force =     0.00000000   -0.00000000   -0.00000000
     atom    8 type  3   force =    -0.00000000   -0.00000000   -0.00000000
     atom    9 type  3   force =     0.00000000   -0.00000000   -0.00000000
     atom   10 type  3   force =    -0.00473922   -0.00386066    0.01038006
     atom   11 type  3   force =     0.00029800    0.00497109   -0.00019336
     atom   12 type  3   force =    -0.00477764    0.00439666    0.01008695
     atom   13 type  3   force =    -0.00069562   -0.00448246    0.00027446
     atom   14 type  3   force =     0.00586495   -0.00456695    0.01022235
     atom   15 type  3   force =     0.00241381    0.00569113   -0.00210848
     atom   16 type  3   force =     0.00561746    0.00579668    0.00970523
     atom   17 type  3   force =     0.00192257   -0.00345383   -0.00014083
     atom   18 type  4   force =     0.00301778    0.00156405   -0.00215987
     atom   19 type  4   force =    -0.00886364   -0.00056748    0.00899819
     atom   20 type  4   force =     0.00168039   -0.00048019   -0.00191990
     atom   21 type  4   force =     0.00958631   -0.00112389    0.01248954
     atom   22 type  4   force =    -0.00185006   -0.00127982   -0.00377414
     atom   23 type  5   force =    -0.00080608    0.00026856   -0.00211046

     Total force =     0.561194     Total SCF correction =     0.034181

     Computing stress (Cartesian axis) and pressure

     negative rho (up, down):  9.093E-01 9.093E-01
          total   stress  (Ry/bohr**3)                   (kbar)     P=       98.31
   0.00076031  -0.00003834   0.00008715          111.85       -5.64       12.82
  -0.00003834   0.00075396  -0.00006025           -5.64      110.91       -8.86
   0.00008715  -0.00006025   0.00049053           12.82       -8.86       72.16

     Entering Dynamics:    iteration =    20
                           time      =   0.0041 pico-seconds

ATOMIC_POSITIONS (angstrom)
Hf            2.6699999570        2.8271230292        6.6039642186    0   0   0
Hf            1.2529906802        1.2862841814        5.0584662261    0   0   0
Hf            1.2554868986        7.3898042948        5.0880677674    0   0   0
Hf            4.0870092338        1.2862841814        5.0584662261    0   0   0
Hf            4.0845130154        7.3898042948        5.0880677674    0   0   0
Nb            2.6699999570        2.7969306055        3.5155832167    0   0   0
Nb            2.6699999570        5.8763786763        6.6349979432    0   0   0
Ta            1.2093730560        4.3409278516        5.0711258323    0   0   0
Ta            4.1306268580        4.3409278516        5.0711258323    0   0   0
Ta            1.3069522530        1.3137790107        2.0580775769
Ta            1.3026046601        1.3079949701        8.0952558733
Ta            1.3037524971        7.3762590116        2.0456493211
Ta            1.3074488154        7.3653923084        8.0866790330
Ta            4.0330344048        1.3138132729        2.0581555485
Ta            4.0373888486        1.3079628003        8.0951803948
Ta            4.0362115634        7.3761686035        2.0456479646
Ta            4.0325151388        7.3654154755        8.0866825264
Zr            2.6701834623        5.8665512031        3.5273259162
Zr            1.2407901644        4.3219423345        1.9974078044
Zr            1.2373287742        4.3542655497        8.1522833722
Zr            4.0992164640        4.3219435558        1.9972050380
Zr            4.1028071305        4.3543106944        8.1522870510
H             5.1791260445        3.8035993363        6.0209841072

     kinetic energy (Ekin) =           1.75305797 Ry
     temperature           =       13180.28388921 K
     Ekin + Etot (const)   =       -2941.23331452 Ry
     Ions kinetic stress =           33.86 (kbar)
                                     47.45         -24.59          44.12
                                    -24.59          12.80         -22.95
                                     44.12         -22.95          41.33

     The maximum number of steps has been reached.

     End of molecular dynamics calculation

     diffusion coefficients :
     atom     1   D =       0.00000000 cm^2/s
     atom     2   D =       0.00000000 cm^2/s
     atom     3   D =       0.00000000 cm^2/s
     atom     4   D =       0.00000000 cm^2/s
     atom     5   D =       0.00000000 cm^2/s
     atom     6   D =       0.00000000 cm^2/s
     atom     7   D =       0.00000000 cm^2/s
     atom     8   D =       0.00000000 cm^2/s
     atom     9   D =       0.00000000 cm^2/s
     atom    10   D =       0.00000000 cm^2/s
     atom    11   D =       0.00000000 cm^2/s
     atom    12   D =       0.00000000 cm^2/s
     atom    13   D =       0.00000000 cm^2/s
     atom    14   D =       0.00000000 cm^2/s
     atom    15   D =       0.00000000 cm^2/s
     atom    16   D =       0.00000000 cm^2/s
     atom    17   D =       0.00000000 cm^2/s
     atom    18   D =       0.00000000 cm^2/s
     atom    19   D =       0.00000007 cm^2/s
     atom    20   D =       0.00000006 cm^2/s
     atom    21   D =       0.00000007 cm^2/s
     atom    22   D =       0.00000007 cm^2/s
     atom    23   D =       0.00003562 cm^2/s

     < D > =       0.00000257 cm^2/s

     Writing all to output data dir outdir/pwscf.save/

     General routines

     Parallel routines

   This run was terminated on:  23:55:47  11Jun2023

   JOB DONE.