     Program PWSCF v.7.2 starts on 11Jun2023 at 21: 3:49

     Reading input from md_data/md_Hf5Nb2Ta10Zr5H_20steps_100eV_incident45_polar30.in
Warning: card &CELL ignored
Warning: card / ignored

     Current dimensions of program PWSCF are:
     Max number of different atomic species (ntypx) = 10
     Max number of k-points (npk) =  40000
     Max angular momentum in pseudopotentials (lmaxx) =  4

     File outdir/pwscf.update deleted, as requested

     File outdir/pwscf.md deleted, as requested

     gamma-point specific algorithms are used

     R & G space division:  proc/nbgrp/npool/nimage =      42
     Subspace diagonalization in iterative solution of the eigenvalue problem:
     one sub-group per band group will be used

     Using Slab Decomposition

     bravais-lattice index     =            0
     lattice parameter (alat)  =      16.1383  a.u.
     unit-cell volume          =    5077.2634 (a.u.)^3
     number of atoms/cell      =           23
     number of atomic types    =            5
     number of electrons       =       277.00
     number of Kohn-Sham states=          167
     kinetic-energy cutoff     =     120.0000  Ry
     charge density cutoff     =     480.0000  Ry
     scf convergence threshold =      1.0E-03
     mixing beta               =       0.7000
     number of iterations used =            8  TF        mixing
     energy convergence thresh.=      0.0E+00
     force convergence thresh. =      0.0E+00
     Exchange-correlation=  SLA  PW   PBX  PBC
                           (   1   4   3   4   0   0   0)
     nstep                     =           20

     celldm(1)=  16.138261  celldm(2)=   0.000000  celldm(3)=   0.000000
     celldm(4)=   0.000000  celldm(5)=   0.000000  celldm(6)=   0.000000

     crystal axes: (cart. coord. in units of alat)
               a(1) = (   1.000000   0.000000   0.000000 )
               a(2) = (   0.000000   1.016393   0.000000 )
               a(3) = (   0.000000   0.000000   1.188496 )

     reciprocal axes: (cart. coord. in units 2 pi/alat)
               b(1) = (  1.000000  0.000000  0.000000 )
               b(2) = (  0.000000  0.983871  0.000000 )
               b(3) = (  0.000000  0.000000  0.841400 )

     PseudoPot. # 1 for Hf read from file:
     q-e/pseudo/hf_pbe_v1.uspp.F.UPF
     MD5 check sum: 8ee9378dfe14276e333edf04c5e4aa26
     Pseudo is Ultrasoft + core correction, Zval = 12.0
     Generated by new atomic code, or converted to UPF format
     Using radial grid of  921 points,  8 beta functions with:
                l(1) =   0
                l(2) =   0
                l(3) =   0
                l(4) =   1
                l(5) =   1
                l(6) =   2
                l(7) =   2
                l(8) =   3
     Q(r) pseudized with  6 coefficients,  rinner =    1.200   1.200   1.200
                                                       1.200   1.200   1.200
                                                       1.200

     PseudoPot. # 2 for Nb read from file:
     q-e/pseudo/nb_pbe_v1.uspp.F.UPF
     MD5 check sum: 573aab8a2fa660278ed4a62cd769473f
     Pseudo is Ultrasoft + core correction, Zval = 13.0
     Generated by new atomic code, or converted to UPF format
     Using radial grid of  887 points,  6 beta functions with:
                l(1) =   0
                l(2) =   0
                l(3) =   1
                l(4) =   1
                l(5) =   2
                l(6) =   2
     Q(r) pseudized with  6 coefficients,  rinner =    1.000   1.000   1.000
                                                       1.000   1.000

     PseudoPot. # 3 for Ta read from file:
     q-e/pseudo/ta_pbe_v1.uspp.F.UPF
     MD5 check sum: f8bbe9446314a3b8ea5d9f3e3836c939
     Pseudo is Ultrasoft + core correction, Zval = 13.0
     Generated by new atomic code, or converted to UPF format
     Using radial grid of  921 points,  7 beta functions with:
                l(1) =   0
                l(2) =   0
                l(3) =   1
                l(4) =   1
                l(5) =   2
                l(6) =   2
                l(7) =   3
     Q(r) pseudized with  6 coefficients,  rinner =    1.300   1.300   1.300
                                                       1.300   1.300   1.300
                                                       1.300

     PseudoPot. # 4 for Zr read from file:
     q-e/pseudo/zr_pbe_v1.uspp.F.UPF
     MD5 check sum: 5db81b1e868ab7776c4564c113de050b
     Pseudo is Ultrasoft + core correction, Zval = 12.0
     Generated by new atomic code, or converted to UPF format
     Using radial grid of  887 points,  6 beta functions with:
                l(1) =   0
                l(2) =   0
                l(3) =   1
                l(4) =   1
                l(5) =   2
                l(6) =   2
     Q(r) pseudized with  6 coefficients,  rinner =    1.200   1.200   1.200
                                                       1.200   1.200

     PseudoPot. # 5 for H  read from file:
     q-e/pseudo/h_pbe_v1.4.uspp.F.UPF
     MD5 check sum: 761ae9a214b05c3daf00ab9f6b793d6f
     Pseudo is Ultrasoft, Zval =  1.0
     Generated by new atomic code, or converted to UPF format
     Using radial grid of  615 points,  2 beta functions with:
                l(1) =   0
                l(2) =   0
     Q(r) pseudized with  8 coefficients,  rinner =    0.700

     atomic species   valence    mass     pseudopotential
        Hf            12.00   178.49000     Hf( 1.00)
        Nb            13.00    92.90637     Nb( 1.00)
        Ta            13.00   180.94788     Ta( 1.00)
        Zr            12.00    91.22400     Zr( 1.00)
        H              1.00     2.01400     H ( 1.00)

     Starting magnetic structure
     atomic species   magnetization
        Hf           0.000
        Nb           0.000
        Ta           0.000
        Zr           0.000
        H            0.000

     No symmetry found

   Cartesian axes

     site n.     atom                  positions (alat units)
         1           Hf  tau(   1) = (   0.3126464   0.3310449   0.7732979  )
         2           Hf  tau(   2) = (   0.1467202   0.1506188   0.5923263  )
         3           Hf  tau(   3) = (   0.1470125   0.8653167   0.5957925  )
         4           Hf  tau(   4) = (   0.4785725   0.1506188   0.5923263  )
         5           Hf  tau(   5) = (   0.4782802   0.8653167   0.5957925  )
         6           Nb  tau(   6) = (   0.3126464   0.3275094   0.4116608  )
         7           Nb  tau(   7) = (   0.3126464   0.6881006   0.7769319  )
         8           Ta  tau(   8) = (   0.1416128   0.5083054   0.5938087  )
         9           Ta  tau(   9) = (   0.4836800   0.5083054   0.5938087  )
        10           Ta  tau(  10) = (   0.1530741   0.1538785   0.2410748  )
        11           Ta  tau(  11) = (   0.1525513   0.1532074   0.9478430  )
        12           Ta  tau(  12) = (   0.1526943   0.8636799   0.2396062  )
        13           Ta  tau(  13) = (   0.1531277   0.8624219   0.9468387  )
        14           Ta  tau(  14) = (   0.4722187   0.1538785   0.2410748  )
        15           Ta  tau(  15) = (   0.4727414   0.1532074   0.9478430  )
        16           Ta  tau(  16) = (   0.4725984   0.8636799   0.2396062  )
        17           Ta  tau(  17) = (   0.4721650   0.8624219   0.9468387  )
        18           Zr  tau(  18) = (   0.3126464   0.6869187   0.4130426  )
        19           Zr  tau(  19) = (   0.1456481   0.5060981   0.2341920  )
        20           Zr  tau(  20) = (   0.1452442   0.5098505   0.9543040  )
        21           Zr  tau(  21) = (   0.4796447   0.5060981   0.2341920  )
        22           Zr  tau(  22) = (   0.4800486   0.5098505   0.9543040  )
        23           H   tau(  23) = (   0.6161590   0.6229269   0.6601716  )

     number of k points=     1  Gaussian smearing, width (Ry)=  0.0220
                       cart. coord. in units 2pi/alat
        k(    1) = (   0.0000000   0.0000000   0.0000000), wk =   1.0000000

     Check: negative core charge=   -0.000002
     Generating pointlists ...
     new r_m :   0.1181 (alat units)  1.9052 (a.u.) for type    1
     new r_m :   0.1201 (alat units)  1.9374 (a.u.) for type    2
     new r_m :   0.0773 (alat units)  1.2471 (a.u.) for type    3
     new r_m :   0.1216 (alat units)  1.9625 (a.u.) for type    4
     new r_m :   0.0773 (alat units)  1.2471 (a.u.) for type    5

     Initial potential from superposition of free atoms

     starting charge     266.9726, renormalised to     277.0000

     negative rho (up, down):  9.226E-01 9.226E-01
     Starting wfcs are  287 randomized atomic wfcs

     Self-consistent Calculation

     iteration #  1     ecut=   120.00 Ry     beta= 0.70
     Davidson diagonalization with overlap
     ethr =  1.00E-02,  avg # of iterations =  2.0

     negative rho (up, down):  9.852E-01 9.851E-01

     total energy              =   -2931.88113744 Ry
     estimated scf accuracy    <     287.24461499 Ry

     total magnetization       =    -0.00 Bohr mag/cell
     absolute magnetization    =     0.11 Bohr mag/cell

[...]

     Magnetic moment per site  (integrated on atomic sphere of radius R)
     atom   1 (R=0.118)  charge=  9.1887  magn=  0.0000
     atom   2 (R=0.118)  charge=  8.8379  magn= -0.0001
     atom   3 (R=0.118)  charge=  8.8376  magn= -0.0003
     atom   4 (R=0.118)  charge=  8.8398  magn= -0.0001
     atom   5 (R=0.118)  charge=  8.8328  magn= -0.0003
     atom   6 (R=0.120)  charge= 10.3504  magn= -0.0002
     atom   7 (R=0.120)  charge= 10.3516  magn= -0.0001
     atom   8 (R=0.077)  charge=  5.9459  magn= -0.0001
     atom   9 (R=0.077)  charge=  5.9637  magn= -0.0000
     atom  10 (R=0.077)  charge=  5.9287  magn= -0.0004
     atom  11 (R=0.077)  charge=  5.9284  magn= -0.0003
     atom  12 (R=0.077)  charge=  5.9279  magn= -0.0009
     atom  13 (R=0.077)  charge=  5.9289  magn= -0.0003
     atom  14 (R=0.077)  charge=  5.9289  magn= -0.0007
     atom  15 (R=0.077)  charge=  5.9288  magn= -0.0004
     atom  16 (R=0.077)  charge=  5.9284  magn= -0.0005
     atom  17 (R=0.077)  charge=  5.9305  magn= -0.0004
     atom  18 (R=0.122)  charge=  9.4536  magn=  0.0002
     atom  19 (R=0.122)  charge=  8.9958  magn= -0.0023
     atom  20 (R=0.122)  charge=  8.9941  magn=  0.0009
     atom  21 (R=0.122)  charge=  8.9948  magn= -0.0016
     atom  22 (R=0.122)  charge=  8.9974  magn= -0.0000
     atom  23 (R=0.077)  charge=  0.9042  magn= -0.0000

     End of self-consistent calculation

 ------ SPIN UP ------------

          k = 0.0000 0.0000 0.0000 ( 56324 PWs)   bands (ev):

   -59.7646 -59.7612 -59.7188 -59.7186 -59.6821 -59.6741 -59.6366 -59.6362
   -59.5076 -59.1609 -53.3504 -53.3009 -53.2213 -53.1661 -51.6700 -45.2545
   -45.2370 -40.6207 -40.6043 -40.5308 -40.5036 -38.7808 -26.7653 -26.7581
   -26.6760 -26.6754 -26.5796 -26.5742 -26.4550 -26.4432 -26.3413 -26.3092
   -26.2777 -26.2472 -26.2415 -26.2094 -26.1959 -26.1522 -26.1394 -26.1257
   -26.0638 -25.9431 -25.9424 -25.9406 -25.9249 -25.8821 -25.8682 -25.8593
   -25.8409 -25.8394 -25.8274 -25.8190 -23.1362 -22.9195 -22.6292 -22.5318
   -22.2772 -22.1495 -22.1315 -22.0228 -21.8971 -21.8272 -21.7994 -21.5772
[...]

     convergence has been achieved in   4 iterations

     negative rho (up, down):  9.095E-01 9.095E-01

     Forces acting on atoms (cartesian axes, Ry/au):

     atom    1 type  1   force =     0.00170723   -0.01937122    0.00871403
     atom    2 type  1   force =    -0.12120114   -0.01654610   -0.00904923
     atom    3 type  1   force =    -0.12084202    0.01203600   -0.00380404
     atom    4 type  1   force =     0.12849126   -0.01088413   -0.01128053
     atom    5 type  1   force =     0.12884709   -0.01204780   -0.00093179
     atom    6 type  2   force =    -0.00801925   -0.02039948    0.00338617
     atom    7 type  2   force =    -0.02299073    0.00983107   -0.00567945
     atom    8 type  3   force =    -0.11978046    0.00859412    0.00099370
     atom    9 type  3   force =    -0.11867204   -0.22532144   -0.15329291
     atom   10 type  3   force =    -0.02310078   -0.02784341   -0.05633415
     atom   11 type  3   force =    -0.02421585   -0.03211957    0.06055261
     atom   12 type  3   force =    -0.02013718    0.03271447   -0.05320217
     atom   13 type  3   force =    -0.01303678    0.02862843    0.06571017
     atom   14 type  3   force =     0.02168257   -0.02928546   -0.05641337
     atom   15 type  3   force =     0.01828338   -0.03557003    0.06332077
     atom   16 type  3   force =     0.02039374    0.03703130   -0.05014256
     atom   17 type  3   force =     0.01158749    0.03711647    0.06550603
     atom   18 type  4   force =     0.00174008    0.02407648   -0.01029275
     atom   19 type  4   force =    -0.13518009   -0.00501761   -0.11205308
     atom   20 type  4   force =    -0.13357083    0.00402821    0.11590494
     atom   21 type  4   force =     0.13007602   -0.00735516   -0.11094219
     atom   22 type  4   force =     0.13153578    0.00282646    0.11727496
     atom   23 type  5   force =     0.26640251    0.24487839    0.13205482
     The non-local contrib.  to forces
     atom    1 type  1   force =     0.00705598   -0.00535100    0.02550597
     atom    2 type  1   force =    -0.24925605   -0.16307250    0.01069968
     atom    3 type  1   force =    -0.24281332    0.15369930   -0.02682788
     atom    4 type  1   force =     0.24907984   -0.16795728    0.01473591
     atom    5 type  1   force =     0.24966220    0.13618377   -0.01954301
     atom    6 type  2   force =     0.01029749   -0.06373576   -0.06888972
     atom    7 type  2   force =    -0.01192184    0.07468572    0.06414845
     atom    8 type  3   force =    -0.25041527    0.00136136   -0.00458877
     atom    9 type  3   force =     0.13103530   -0.07498118   -0.04406368
     atom   10 type  3   force =    -0.22433345   -0.00201066   -0.22042888
     atom   11 type  3   force =    -0.22711448    0.01185213    0.20398688
     atom   12 type  3   force =    -0.21083901   -0.02427853   -0.18053410
     atom   13 type  3   force =    -0.21457291   -0.01024347    0.20967935
     atom   14 type  3   force =     0.21476782    0.00372943   -0.21893358
     atom   15 type  3   force =     0.22007397    0.00619997    0.20649375
     atom   16 type  3   force =     0.20807757   -0.02216403   -0.18066591
     atom   17 type  3   force =     0.23142557   -0.01496714    0.20359663
     atom   18 type  4   force =    -0.01072267    0.06869091   -0.05789096
     atom   19 type  4   force =     0.06759602    0.00915703    0.07464015
     atom   20 type  4   force =     0.06298231   -0.01553815   -0.06357245
     atom   21 type  4   force =    -0.06370136    0.01229284    0.06851772
     atom   22 type  4   force =    -0.05841812   -0.00948885   -0.05153764
     atom   23 type  5   force =    -0.07814524   -0.06314407   -0.04252473
     The ionic contribution  to forces
     atom    1 type  1   force =    -0.26283248   -4.79845772   14.33292709
     atom    2 type  1   force =   -35.67667017   -6.15350892    0.74689932
     atom    3 type  1   force =   -35.70014094    6.24838732   -0.75952155
     atom    4 type  1   force =    35.54007519   -6.23565109    0.71731877
     atom    5 type  1   force =    35.19061185    6.98249610   -0.92730547
     atom    6 type  2   force =    -0.18527115   -3.66976940  -14.31064965
     atom    7 type  2   force =    -0.71326676    3.72894643   14.48767131
     atom    8 type  3   force =   -47.65480513   -0.03005781   -0.14051923
     atom    9 type  3   force =    45.04186085   -2.13112329   -1.34696133
     atom   10 type  3   force =   -32.18179568   -2.08105316  -23.44572019
     atom   11 type  3   force =   -31.26014660   -0.83761448   22.47175119
     atom   12 type  3   force =   -31.37935399    0.82489385  -22.52959824
     atom   13 type  3   force =   -32.18755724    2.24404695   23.49605685
     atom   14 type  3   force =    32.11910100   -2.09903743  -23.49479530
     atom   15 type  3   force =    31.16762252   -0.87321263   22.54406587
     atom   16 type  3   force =    31.27463441    0.89972112  -22.65035277
     atom   17 type  3   force =    31.98512932    2.43364758   23.73023398
     atom   18 type  4   force =    -0.36045730    4.39767106  -14.41101341
     atom   19 type  4   force =   -32.13783624    0.92461080  -25.88056009
     atom   20 type  4   force =   -32.13790108   -1.00793880   25.91165950
     atom   21 type  4   force =    32.01003058    0.87296921  -26.07300025
     atom   22 type  4   force =    31.83922976   -1.16416212   26.38083405
     atom   23 type  5   force =     5.66973927    1.52419642    1.15057955
     The local contribution  to forces
     atom    1 type  1   force =     0.26073907    4.78758064  -14.36749029
     atom    2 type  1   force =    35.81584607    6.30271403   -0.79386230
     atom    3 type  1   force =    35.83324306   -6.39511280    0.75700454
     atom    4 type  1   force =   -35.67054525    6.40059901   -0.77191640
     atom    5 type  1   force =   -35.31533138   -7.14191423    0.91868060
     atom    6 type  2   force =     0.17112797    3.71225747   14.36955848
     atom    7 type  2   force =     0.70122092   -3.79749825  -14.57971034
     atom    8 type  3   force =    47.81962841    0.03670192    0.11695694
     atom    9 type  3   force =   -45.30219613    1.98988383    1.21438151
     atom   10 type  3   force =    32.40323253    2.03934603   23.63183025
     atom   11 type  3   force =    31.49047569    0.78561808  -22.62387244
     atom   12 type  3   force =    31.59143520   -0.75308779   22.67786294
     atom   13 type  3   force =    32.41196796   -2.19816648  -23.64731309
     atom   14 type  3   force =   -32.33117365    2.05077377   23.68139425
     atom   15 type  3   force =   -31.39445512    0.82740544  -22.69617943
     atom   16 type  3   force =   -31.48416644   -0.82556669   22.80333781
     atom   17 type  3   force =   -32.23248633   -2.37355442  -23.87511793
     atom   18 type  4   force =     0.37468560   -4.43805447   14.44285957
     atom   19 type  4   force =    31.94144244   -0.93702112   25.71112806
     atom   20 type  4   force =    31.95296994    1.02794811  -25.73683342
     atom   21 type  4   force =   -31.82196986   -0.89144070   25.91343467
     atom   22 type  4   force =   -31.66111745    1.17249632  -26.21818744
     atom   23 type  5   force =    -5.32421278   -1.21587387   -0.98012183
     The core correction contribution to forces
     atom    1 type  1   force =     0.00074312    0.00232797   -0.00206511
     atom    2 type  1   force =    -0.01096428   -0.00142272    0.00050067
     atom    3 type  1   force =    -0.01193460    0.00278625   -0.00167327
     atom    4 type  1   force =     0.01146858   -0.00232648    0.00211014
     atom    5 type  1   force =     0.00777077    0.00475595   -0.00156868
     atom    6 type  2   force =    -0.00012787    0.00352332    0.00344620
     atom    7 type  2   force =     0.00063349   -0.00369625   -0.00251490
     atom    8 type  3   force =    -0.02929522    0.00096372    0.00024924
     atom    9 type  3   force =     0.00999016   -0.01271105   -0.00751370
     atom   10 type  3   force =    -0.02263509    0.00814228   -0.01681140
     atom   11 type  3   force =    -0.02566163    0.00909241    0.01849409
     atom   12 type  3   force =    -0.02224422   -0.00999911   -0.01497973
     atom   13 type  3   force =    -0.02284310   -0.00936443    0.01595692
     atom   14 type  3   force =     0.02221159    0.00865637   -0.01695817
     atom   15 type  3   force =     0.02383687    0.00946767    0.01672264
     atom   16 type  3   force =     0.02272343   -0.01043566   -0.01463879
     atom   17 type  3   force =     0.02346230   -0.00825492    0.01533440
     atom   18 type  4   force =     0.00066382   -0.00360134    0.00273704
     atom   19 type  4   force =    -0.01013283    0.00007421   -0.00967205
     atom   20 type  4   force =    -0.00995095    0.00047351    0.00918473
     atom   21 type  4   force =     0.00987016   -0.00008544   -0.00926658
     atom   22 type  4   force =     0.00994293    0.00036075    0.00810216
     atom   23 type  5   force =     0.00000000    0.00000000    0.00000000
     The Hubbard contrib.    to forces
     atom    1 type  1   force =     0.00000000    0.00000000    0.00000000
     atom    2 type  1   force =     0.00000000    0.00000000    0.00000000
     atom    3 type  1   force =     0.00000000    0.00000000    0.00000000
     atom    4 type  1   force =     0.00000000    0.00000000    0.00000000
     atom    5 type  1   force =     0.00000000    0.00000000    0.00000000
     atom    6 type  2   force =     0.00000000    0.00000000    0.00000000
     atom    7 type  2   force =     0.00000000    0.00000000    0.00000000
     atom    8 type  3   force =     0.00000000    0.00000000    0.00000000
     atom    9 type  3   force =     0.00000000    0.00000000    0.00000000
     atom   10 type  3   force =     0.00000000    0.00000000    0.00000000
     atom   11 type  3   force =     0.00000000    0.00000000    0.00000000
     atom   12 type  3   force =     0.00000000    0.00000000    0.00000000
     atom   13 type  3   force =     0.00000000    0.00000000    0.00000000
     atom   14 type  3   force =     0.00000000    0.00000000    0.00000000
     atom   15 type  3   force =     0.00000000    0.00000000    0.00000000
     atom   16 type  3   force =     0.00000000    0.00000000    0.00000000
     atom   17 type  3   force =     0.00000000    0.00000000    0.00000000
     atom   18 type  4   force =     0.00000000    0.00000000    0.00000000
     atom   19 type  4   force =     0.00000000    0.00000000    0.00000000
     atom   20 type  4   force =     0.00000000    0.00000000    0.00000000
     atom   21 type  4   force =     0.00000000    0.00000000    0.00000000
     atom   22 type  4   force =     0.00000000    0.00000000    0.00000000
     atom   23 type  5   force =     0.00000000    0.00000000    0.00000000
     The SCF correction term to forces
     atom    1 type  1   force =    -0.00000000   -0.00000000    0.00000000
     atom    2 type  1   force =     0.00000000   -0.00000000    0.00000000
     atom    3 type  1   force =     0.00000000    0.00000000    0.00000000
     atom    4 type  1   force =    -0.00000000   -0.00000000    0.00000000
     atom    5 type  1   force =    -0.00000000    0.00000000    0.00000000
     atom    6 type  2   force =    -0.00000000   -0.00000000    0.00000000
     atom    7 type  2   force =     0.00000000    0.00000000    0.00000000
     atom    8 type  3   force =    -0.00000000   -0.00000000    0.00000000
     atom    9 type  3   force =     0.00000000    0.00000000    0.00000000
     atom   10 type  3   force =     0.00260815    0.00777072   -0.00669668
     atom   11 type  3   force =    -0.00159160   -0.00102911   -0.01129986
     atom   12 type  3   force =     0.00104209   -0.00477534   -0.00744580
     atom   13 type  3   force =     0.00014576    0.00239447   -0.01016261
     atom   14 type  3   force =    -0.00304694    0.00663101   -0.00861334
     atom   15 type  3   force =     0.00138239   -0.00539187   -0.00927482
     atom   16 type  3   force =    -0.00069798   -0.00448482   -0.00931565
     atom   17 type  3   force =     0.00423388    0.00028399   -0.01003381
     atom   18 type  4   force =    -0.00225212   -0.00059106    0.01152225
     atom   19 type  4   force =     0.00392777   -0.00179991   -0.00908191
     atom   20 type  4   force =    -0.00149381   -0.00087783   -0.00602618
     atom   21 type  4   force =    -0.00397626   -0.00105245   -0.01212050
     atom   22 type  4   force =     0.00207592    0.00365897   -0.00342894
     atom   23 type  5   force =    -0.00080150   -0.00026148    0.00262908

     Total force =     0.557816     Total SCF correction =     0.037172

     Computing stress (Cartesian axis) and pressure

     negative rho (up, down):  9.095E-01 9.095E-01
          total   stress  (Ry/bohr**3)                   (kbar)     P=       98.62
   0.00076056   0.00008904   0.00004077          111.88       13.10        6.00
   0.00008904   0.00080124   0.00003727           13.10      117.87        5.48
   0.00004077   0.00003727   0.00044934            6.00        5.48       66.10

     Entering Dynamics:    iteration =    20
                           time      =   0.0041 pico-seconds

ATOMIC_POSITIONS (angstrom)
Hf            2.6699999570        2.8271230292        6.6039642186    0   0   0
Hf            1.2529906802        1.2862841814        5.0584662261    0   0   0
Hf            1.2554868986        7.3898042948        5.0880677674    0   0   0
Hf            4.0870092338        1.2862841814        5.0584662261    0   0   0
Hf            4.0845130154        7.3898042948        5.0880677674    0   0   0
Nb            2.6699999570        2.7969306055        3.5155832167    0   0   0
Nb            2.6699999570        5.8763786763        6.6349979432    0   0   0
Ta            1.2093730560        4.3409278516        5.0711258323    0   0   0
Ta            4.1306268580        4.3409278516        5.0711258323    0   0   0
Ta            1.3069635099        1.3138099691        2.0581053603
Ta            1.3025188722        1.3080115579        8.0952257232
Ta            1.3037762603        7.3761923774        2.0455953149
Ta            1.3075500723        7.3654067983        8.0866976968
Ta            4.0329747328        1.3138212770        2.0581250604
Ta            4.0374168812        1.3079932447        8.0952578999
Ta            4.0362145571        7.3762277473        2.0456375926
Ta            4.0324358226        7.3654622827        8.0866746146
Zr            2.6701423686        5.8668508764        3.5272231292
Zr            1.2407502685        4.3219564600        1.9973908877
Zr            1.2373029315        4.3541997260        8.1523100845
Zr            4.0991432553        4.3219197832        1.9974109647
Zr            4.1025995230        4.3541958609        8.1523667382
H             5.1912705654        5.2789484353        5.6092316490

     kinetic energy (Ekin) =           1.75325638 Ry
     temperature           =       13181.77566936 K
     Ekin + Etot (const)   =       -2941.22768736 Ry
     Ions kinetic stress =           33.87 (kbar)
                                     49.09          43.98          25.04
                                     43.98          39.54          22.51
                                     25.04          22.51          12.96

     The maximum number of steps has been reached.

     End of molecular dynamics calculation

     diffusion coefficients :
     atom     1   D =       0.00000000 cm^2/s
     atom     2   D =       0.00000000 cm^2/s
     atom     3   D =       0.00000000 cm^2/s
     atom     4   D =       0.00000000 cm^2/s
     atom     5   D =       0.00000000 cm^2/s
     atom     6   D =       0.00000000 cm^2/s
     atom     7   D =       0.00000000 cm^2/s
     atom     8   D =       0.00000000 cm^2/s
     atom     9   D =       0.00000000 cm^2/s
     atom    10   D =       0.00000000 cm^2/s
     atom    11   D =       0.00000000 cm^2/s
     atom    12   D =       0.00000000 cm^2/s
     atom    13   D =       0.00000000 cm^2/s
     atom    14   D =       0.00000000 cm^2/s
     atom    15   D =       0.00000000 cm^2/s
     atom    16   D =       0.00000000 cm^2/s
     atom    17   D =       0.00000000 cm^2/s
     atom    18   D =       0.00000000 cm^2/s
     atom    19   D =       0.00000007 cm^2/s
     atom    20   D =       0.00000007 cm^2/s
     atom    21   D =       0.00000006 cm^2/s
     atom    22   D =       0.00000006 cm^2/s
     atom    23   D =       0.00003072 cm^2/s

     < D > =       0.00000221 cm^2/s

     Writing all to output data dir outdir/pwscf.save/

     General routines

     Parallel routines

   This run was terminated on:  21:48: 1  11Jun2023

   JOB DONE.