     Program PWSCF v.7.2 starts on 11Jun2023 at 22:28:53

     Reading input from md_data/md_Hf5Nb2Ta10Zr5H_20steps_100eV_incident45_polar90.in
Warning: card &CELL ignored
Warning: card / ignored

     Current dimensions of program PWSCF are:
     Max number of different atomic species (ntypx) = 10
     Max number of k-points (npk) =  40000
     Max angular momentum in pseudopotentials (lmaxx) =  4

     File outdir/pwscf.md deleted, as requested

     gamma-point specific algorithms are used

     R & G space division:  proc/nbgrp/npool/nimage =      42
     Subspace diagonalization in iterative solution of the eigenvalue problem:
     one sub-group per band group will be used

     Using Slab Decomposition

     bravais-lattice index     =            0
     lattice parameter (alat)  =      16.1383  a.u.
     unit-cell volume          =    5077.2634 (a.u.)^3
     number of atoms/cell      =           23
     number of atomic types    =            5
     number of electrons       =       277.00
     number of Kohn-Sham states=          167
     kinetic-energy cutoff     =     120.0000  Ry
     charge density cutoff     =     480.0000  Ry
     scf convergence threshold =      1.0E-03
     mixing beta               =       0.7000
     number of iterations used =            8  TF        mixing
     energy convergence thresh.=      0.0E+00
     force convergence thresh. =      0.0E+00
     Exchange-correlation=  SLA  PW   PBX  PBC
                           (   1   4   3   4   0   0   0)
     nstep                     =           20

     celldm(1)=  16.138261  celldm(2)=   0.000000  celldm(3)=   0.000000
     celldm(4)=   0.000000  celldm(5)=   0.000000  celldm(6)=   0.000000

     crystal axes: (cart. coord. in units of alat)
               a(1) = (   1.000000   0.000000   0.000000 )
               a(2) = (   0.000000   1.016393   0.000000 )
               a(3) = (   0.000000   0.000000   1.188496 )

     reciprocal axes: (cart. coord. in units 2 pi/alat)
               b(1) = (  1.000000  0.000000  0.000000 )
               b(2) = (  0.000000  0.983871  0.000000 )
               b(3) = (  0.000000  0.000000  0.841400 )

     PseudoPot. # 1 for Hf read from file:
     q-e/pseudo/hf_pbe_v1.uspp.F.UPF
     MD5 check sum: 8ee9378dfe14276e333edf04c5e4aa26
     Pseudo is Ultrasoft + core correction, Zval = 12.0
     Generated by new atomic code, or converted to UPF format
     Using radial grid of  921 points,  8 beta functions with:
                l(1) =   0
                l(2) =   0
                l(3) =   0
                l(4) =   1
                l(5) =   1
                l(6) =   2
                l(7) =   2
                l(8) =   3
     Q(r) pseudized with  6 coefficients,  rinner =    1.200   1.200   1.200
                                                       1.200   1.200   1.200
                                                       1.200

     PseudoPot. # 2 for Nb read from file:
     q-e/pseudo/nb_pbe_v1.uspp.F.UPF
     MD5 check sum: 573aab8a2fa660278ed4a62cd769473f
     Pseudo is Ultrasoft + core correction, Zval = 13.0
     Generated by new atomic code, or converted to UPF format
     Using radial grid of  887 points,  6 beta functions with:
                l(1) =   0
                l(2) =   0
                l(3) =   1
                l(4) =   1
                l(5) =   2
                l(6) =   2
     Q(r) pseudized with  6 coefficients,  rinner =    1.000   1.000   1.000
                                                       1.000   1.000

     PseudoPot. # 3 for Ta read from file:
     q-e/pseudo/ta_pbe_v1.uspp.F.UPF
     MD5 check sum: f8bbe9446314a3b8ea5d9f3e3836c939
     Pseudo is Ultrasoft + core correction, Zval = 13.0
     Generated by new atomic code, or converted to UPF format
     Using radial grid of  921 points,  7 beta functions with:
                l(1) =   0
                l(2) =   0
                l(3) =   1
                l(4) =   1
                l(5) =   2
                l(6) =   2
                l(7) =   3
     Q(r) pseudized with  6 coefficients,  rinner =    1.300   1.300   1.300
                                                       1.300   1.300   1.300
                                                       1.300

     PseudoPot. # 4 for Zr read from file:
     q-e/pseudo/zr_pbe_v1.uspp.F.UPF
     MD5 check sum: 5db81b1e868ab7776c4564c113de050b
     Pseudo is Ultrasoft + core correction, Zval = 12.0
     Generated by new atomic code, or converted to UPF format
     Using radial grid of  887 points,  6 beta functions with:
                l(1) =   0
                l(2) =   0
                l(3) =   1
                l(4) =   1
                l(5) =   2
                l(6) =   2
     Q(r) pseudized with  6 coefficients,  rinner =    1.200   1.200   1.200
                                                       1.200   1.200

     PseudoPot. # 5 for H  read from file:
     q-e/pseudo/h_pbe_v1.4.uspp.F.UPF
     MD5 check sum: 761ae9a214b05c3daf00ab9f6b793d6f
     Pseudo is Ultrasoft, Zval =  1.0
     Generated by new atomic code, or converted to UPF format
     Using radial grid of  615 points,  2 beta functions with:
                l(1) =   0
                l(2) =   0
     Q(r) pseudized with  8 coefficients,  rinner =    0.700

     atomic species   valence    mass     pseudopotential
        Hf            12.00   178.49000     Hf( 1.00)
        Nb            13.00    92.90637     Nb( 1.00)
        Ta            13.00   180.94788     Ta( 1.00)
        Zr            12.00    91.22400     Zr( 1.00)
        H              1.00     2.01400     H ( 1.00)

     Starting magnetic structure
     atomic species   magnetization
        Hf           0.000
        Nb           0.000
        Ta           0.000
        Zr           0.000
        H            0.000

     No symmetry found

   Cartesian axes

     site n.     atom                  positions (alat units)
         1           Hf  tau(   1) = (   0.3126464   0.3310449   0.7732979  )
         2           Hf  tau(   2) = (   0.1467202   0.1506188   0.5923263  )
         3           Hf  tau(   3) = (   0.1470125   0.8653167   0.5957925  )
         4           Hf  tau(   4) = (   0.4785725   0.1506188   0.5923263  )
         5           Hf  tau(   5) = (   0.4782802   0.8653167   0.5957925  )
         6           Nb  tau(   6) = (   0.3126464   0.3275094   0.4116608  )
         7           Nb  tau(   7) = (   0.3126464   0.6881006   0.7769319  )
         8           Ta  tau(   8) = (   0.1416128   0.5083054   0.5938087  )
         9           Ta  tau(   9) = (   0.4836800   0.5083054   0.5938087  )
        10           Ta  tau(  10) = (   0.1530741   0.1538785   0.2410748  )
        11           Ta  tau(  11) = (   0.1525513   0.1532074   0.9478430  )
        12           Ta  tau(  12) = (   0.1526943   0.8636799   0.2396062  )
        13           Ta  tau(  13) = (   0.1531277   0.8624219   0.9468387  )
        14           Ta  tau(  14) = (   0.4722187   0.1538785   0.2410748  )
        15           Ta  tau(  15) = (   0.4727414   0.1532074   0.9478430  )
        16           Ta  tau(  16) = (   0.4725984   0.8636799   0.2396062  )
        17           Ta  tau(  17) = (   0.4721650   0.8624219   0.9468387  )
        18           Zr  tau(  18) = (   0.3126464   0.6869187   0.4130426  )
        19           Zr  tau(  19) = (   0.1456481   0.5060981   0.2341920  )
        20           Zr  tau(  20) = (   0.1452442   0.5098505   0.9543040  )
        21           Zr  tau(  21) = (   0.4796447   0.5060981   0.2341920  )
        22           Zr  tau(  22) = (   0.4800486   0.5098505   0.9543040  )
        23           H   tau(  23) = (   0.6161590   0.5081967   0.7264111  )

     number of k points=     1  Gaussian smearing, width (Ry)=  0.0220
                       cart. coord. in units 2pi/alat
        k(    1) = (   0.0000000   0.0000000   0.0000000), wk =   1.0000000

     Check: negative core charge=   -0.000002
     Generating pointlists ...
     new r_m :   0.1222 (alat units)  1.9717 (a.u.) for type    1
     new r_m :   0.1201 (alat units)  1.9374 (a.u.) for type    2
     new r_m :   0.0773 (alat units)  1.2478 (a.u.) for type    3
     new r_m :   0.1095 (alat units)  1.7671 (a.u.) for type    4
     new r_m :   0.0773 (alat units)  1.2478 (a.u.) for type    5

     Initial potential from superposition of free atoms

     starting charge     266.9726, renormalised to     277.0000

     negative rho (up, down):  9.226E-01 9.226E-01
     Starting wfcs are  287 randomized atomic wfcs

     Self-consistent Calculation

     iteration #  1     ecut=   120.00 Ry     beta= 0.70
     Davidson diagonalization with overlap
     ethr =  1.00E-02,  avg # of iterations =  2.0

     negative rho (up, down):  9.867E-01 9.867E-01

     total energy              =   -2931.85769886 Ry
     estimated scf accuracy    <     287.49792985 Ry

     total magnetization       =    -0.00 Bohr mag/cell
     absolute magnetization    =     0.10 Bohr mag/cell

[...]

     Magnetic moment per site  (integrated on atomic sphere of radius R)
     atom   1 (R=0.122)  charge=  9.4610   -0.0008
     atom   2 (R=0.122)  charge=  9.0548    0.0006
     atom   3 (R=0.122)  charge=  9.0542    0.0001
     atom   4 (R=0.122)  charge=  9.0608    0.0001
     atom   5 (R=0.122)  charge=  9.0592    0.0005
     atom   6 (R=0.120)  charge= 10.3458    0.0013
     atom   7 (R=0.120)  charge= 10.3477   -0.0005
     atom   8 (R=0.077)  charge=  5.9542    0.0001
     atom   9 (R=0.077)  charge=  5.9675    0.0007
     atom  10 (R=0.077)  charge=  5.9350   -0.0028
     atom  11 (R=0.077)  charge=  5.9343   -0.0002
     atom  12 (R=0.077)  charge=  5.9350   -0.0043
     atom  13 (R=0.077)  charge=  5.9349   -0.0002
     atom  14 (R=0.077)  charge=  5.9350   -0.0029
     atom  15 (R=0.077)  charge=  5.9353   -0.0005
     atom  16 (R=0.077)  charge=  5.9349   -0.0024
     atom  17 (R=0.077)  charge=  5.9351    0.0000
     atom  18 (R=0.109)  charge=  8.5796    0.0010
     atom  19 (R=0.109)  charge=  8.2929   -0.0066
     atom  20 (R=0.109)  charge=  8.2898    0.0015
     atom  21 (R=0.109)  charge=  8.2922   -0.0049
     atom  22 (R=0.109)  charge=  8.2854    0.0006
     atom  23 (R=0.077)  charge=  0.9156    0.0000

     End of self-consistent calculation

 ------ SPIN UP ------------

          k = 0.0000 0.0000 0.0000 ( 56324 PWs)   bands (ev):

   -59.7702 -59.7645 -59.7218 -59.7173 -59.6901 -59.6867 -59.6432 -59.6406
   -59.4657 -59.2049 -53.3681 -53.3225 -53.2438 -53.1987 -51.6576 -45.2147
   -45.1897 -40.6125 -40.5866 -40.5245 -40.4785 -38.7596 -26.7665 -26.7581
   -26.6781 -26.6743 -26.5834 -26.5749 -26.4585 -26.4444 -26.3367 -26.3145
   -26.2662 -26.2468 -26.2422 -26.2204 -26.2049 -26.1530 -26.1417 -26.1083
   -26.0252 -25.9509 -25.9491 -25.9430 -25.9287 -25.9049 -25.8793 -25.8680
   -25.8567 -25.8455 -25.8435 -25.8353 -23.1476 -22.9411 -22.6291 -22.5536
   -22.2923 -22.1567 -22.1346 -22.0349 -21.9065 -21.8413 -21.8235 -21.6086
   -21.4539 -21.4039 -21.3546 -21.3087 -21.2366 -21.1883 -20.7205 -20.6660
   -20.5876 -19.1517 -18.9069 -18.7978 -18.7662 -18.5894 -18.5709 -18.5607
[...]

     convergence has been achieved in   5 iterations

     negative rho (up, down):  9.094E-01 9.094E-01

     Forces acting on atoms (cartesian axes, Ry/au):

     atom    1 type  1   force =    -0.01272022   -0.01987627    0.00605272
     atom    2 type  1   force =    -0.11950465   -0.01383451   -0.00717824
     atom    3 type  1   force =    -0.11831608    0.01196906   -0.00177949
     atom    4 type  1   force =     0.11626072   -0.02155966   -0.01006902
     atom    5 type  1   force =     0.11628604    0.01795392   -0.00366371
     atom    6 type  2   force =    -0.00708561   -0.01978154    0.00051889
     atom    7 type  2   force =    -0.01335884    0.01280690   -0.00388386
     atom    8 type  3   force =    -0.12204457    0.00164359    0.00339782
     atom    9 type  3   force =    -0.11021785    0.00918999   -0.25811821
     atom   10 type  3   force =    -0.02417971   -0.03106686   -0.05800046
     atom   11 type  3   force =    -0.01993174   -0.03193640    0.06256595
     atom   12 type  3   force =    -0.01901126    0.03645617   -0.05385532
     atom   13 type  3   force =    -0.01917512    0.02493478    0.06404556
     atom   14 type  3   force =     0.02517731   -0.02749231   -0.05416737
     atom   15 type  3   force =     0.01857267   -0.03841401    0.05604905
     atom   16 type  3   force =     0.02042110    0.03273054   -0.05081461
     atom   17 type  3   force =     0.01668705    0.03269529    0.05931344
     atom   18 type  4   force =    -0.00681720    0.02633790   -0.01601325
     atom   19 type  4   force =    -0.13425315   -0.00497518   -0.11424418
     atom   20 type  4   force =    -0.13366895    0.00492787    0.11146137
     atom   21 type  4   force =     0.13489131   -0.00570501   -0.12360875
     atom   22 type  4   force =     0.15503866    0.00753806    0.09731178
     atom   23 type  5   force =     0.25695011   -0.00454233    0.29467989
     The non-local contrib.  to forces
     atom    1 type  1   force =    -0.00098476   -0.01060003    0.03211654
     atom    2 type  1   force =    -0.24814436   -0.16339353    0.01576844
     atom    3 type  1   force =    -0.24485499    0.15942150   -0.02760637
     atom    4 type  1   force =     0.25901713   -0.16178988    0.03024571
     atom    5 type  1   force =     0.24986325    0.15432859   -0.01840132
     atom    6 type  2   force =     0.00875619   -0.06353178   -0.06194568
     atom    7 type  2   force =    -0.00970902    0.06767761    0.05480721
     atom    8 type  3   force =    -0.25117826    0.00005665   -0.00194900
     atom    9 type  3   force =     0.17628938    0.00173268   -0.05567845
     atom   10 type  3   force =    -0.22114542    0.00742155   -0.21182851
     atom   11 type  3   force =    -0.22401646    0.01770706    0.19906998
     atom   12 type  3   force =    -0.21064089   -0.02315909   -0.18396659
     atom   13 type  3   force =    -0.21357873   -0.01471283    0.20894594
     atom   14 type  3   force =     0.21869232    0.00835443   -0.22617859
     atom   15 type  3   force =     0.23437669    0.00823381    0.18168937
     atom   16 type  3   force =     0.20677905   -0.02541411   -0.19443358
     atom   17 type  3   force =     0.22345244   -0.00557521    0.19089443
     atom   18 type  4   force =     0.00579386    0.06738060   -0.06453475
     atom   19 type  4   force =     0.06231412    0.00795648    0.07280166
     atom   20 type  4   force =     0.05387801   -0.01117693   -0.05884845
     atom   21 type  4   force =    -0.06541442    0.00818669    0.06863142
     atom   22 type  4   force =    -0.05454333   -0.00867672   -0.08316704
     atom   23 type  5   force =    -0.08000824    0.00023837   -0.06740815
     The ionic contribution  to forces
     atom    1 type  1   force =    -0.54237933   -4.89540800   14.32135050
     atom    2 type  1   force =   -35.68793909   -6.21701638    0.70691147
     atom    3 type  1   force =   -35.66926890    6.20343445   -0.78368506
     atom    4 type  1   force =    35.48595613   -6.48421765    0.59766770
     atom    5 type  1   force =    35.46674435    6.47024822   -0.88969924
     atom    6 type  2   force =    -0.20722583   -3.63150248  -14.37974642
     atom    7 type  2   force =    -0.57000377    3.91053130   14.27910180
     atom    8 type  3   force =   -47.65943379    0.07435834   -0.21191059
     atom    9 type  3   force =    45.07126776    0.09501398   -2.67996251
     atom   10 type  3   force =   -32.18159246   -2.10394739  -23.43006912
     atom   11 type  3   force =   -31.27509827   -0.89801390   22.48596483
     atom   12 type  3   force =   -31.36904895    0.80322447  -22.48398995
     atom   13 type  3   force =   -32.18156844    2.23692512   23.46518796
     atom   14 type  3   force =    32.11949515   -2.14071046  -23.47733902
     atom   15 type  3   force =    31.11261587   -1.06619464   22.62367059
     atom   16 type  3   force =    31.30783841    0.83881681  -22.52991512
     atom   17 type  3   force =    32.01806859    2.40462457   23.60157179
     atom   18 type  4   force =    -0.19272790    4.42971966  -14.30311305
     atom   19 type  4   force =   -32.13371706    0.95904345  -25.84762029
     atom   20 type  4   force =   -32.16343313   -0.95437769   25.92841506
     atom   21 type  4   force =    32.03311023    0.95883136  -25.96645743
     atom   22 type  4   force =    31.56378905   -0.94495127   26.84001314
     atom   23 type  5   force =     5.65455136   -0.04843186    2.13365296
     The local contribution  to forces
     atom    1 type  1   force =     0.53010575    4.88441634  -14.34972131
     atom    2 type  1   force =    35.83224370    6.36833118   -0.74299449
     atom    3 type  1   force =    35.81135456   -6.35255884    0.79873880
     atom    4 type  1   force =   -35.64379706    6.62626007   -0.65287393
     atom    5 type  1   force =   -35.61523851   -6.60712918    0.89106741
     atom    6 type  2   force =     0.19220207    3.66760002   14.42598595
     atom    7 type  2   force =     0.56728629   -3.96346015  -14.33886455
     atom    8 type  3   force =    47.82020759   -0.07375671    0.20427449
     atom    9 type  3   force =   -45.37073718   -0.08944376    2.48158469
     atom   10 type  3   force =    32.40229701    2.05250515   23.59793603
     atom   11 type  3   force =    31.51017678    0.84134666  -22.63303987
     atom   12 type  3   force =    31.58491761   -0.72978409   22.62708019
     atom   13 type  3   force =    32.40518248   -2.19047608  -23.61942212
     atom   14 type  3   force =   -32.33469765    2.09218472   23.66482538
     atom   15 type  3   force =   -31.35843114    1.01283589  -22.75639960
     atom   16 type  3   force =   -31.51515975   -0.76782838   22.68796241
     atom   17 type  3   force =   -32.25192867   -2.36058030  -23.73968430
     atom   18 type  4   force =     0.18142081   -4.46242462   14.33497458
     atom   19 type  4   force =    31.94648648   -0.97263732   25.66846465
     atom   20 type  4   force =    31.99257796    0.96969699  -25.76050413
     atom   21 type  4   force =   -31.84020277   -0.97264020   25.78059894
     atom   22 type  4   force =   -31.36700932    0.96047351  -26.66413844
     atom   23 type  5   force =    -5.31744642    0.04364380   -1.77266437
     The core correction contribution to forces
     atom    1 type  1   force =     0.00164286    0.00233783   -0.00029750
     atom    2 type  1   force =    -0.01218074   -0.00160411    0.00041790
     atom    3 type  1   force =    -0.01234104    0.00245199   -0.00185598
     atom    4 type  1   force =     0.01284882   -0.00222081    0.00235154
     atom    5 type  1   force =     0.01301155    0.00181039    0.00024956
     atom    6 type  2   force =    -0.00038501    0.00310020    0.00256406
     atom    7 type  2   force =     0.00045907   -0.00329056   -0.00189600
     atom    8 type  3   force =    -0.02918887   -0.00006697    0.00063412
     atom    9 type  3   force =     0.01555534    0.00098431   -0.01304056
     atom   10 type  3   force =    -0.02188574    0.00960440   -0.01531394
     atom   11 type  3   force =    -0.02461205    0.00973910    0.01789463
     atom   12 type  3   force =    -0.02193357   -0.00986984   -0.01466635
     atom   13 type  3   force =    -0.02308947   -0.00892488    0.01715724
     atom   14 type  3   force =     0.02242211    0.00808833   -0.01700057
     atom   15 type  3   force =     0.02578696    0.01015629    0.01437008
     atom   16 type  3   force =     0.02201831   -0.00887087   -0.01623979
     atom   17 type  3   force =     0.02322496   -0.00848153    0.01468435
     atom   18 type  4   force =    -0.00020049   -0.00376483    0.00317230
     atom   19 type  4   force =    -0.00977387    0.00012018   -0.00969480
     atom   20 type  4   force =    -0.00929603    0.00021226    0.00886440
     atom   21 type  4   force =     0.00995311    0.00010606   -0.00959029
     atom   22 type  4   force =     0.00960185    0.00008335    0.01003296
     atom   23 type  5   force =     0.00000000    0.00000000    0.00000000
     The Hubbard contrib.    to forces
     atom    1 type  1   force =     0.00000000    0.00000000    0.00000000
     atom    2 type  1   force =     0.00000000    0.00000000    0.00000000
     atom    3 type  1   force =     0.00000000    0.00000000    0.00000000
     atom    4 type  1   force =     0.00000000    0.00000000    0.00000000
     atom    5 type  1   force =     0.00000000    0.00000000    0.00000000
     atom    6 type  2   force =     0.00000000    0.00000000    0.00000000
     atom    7 type  2   force =     0.00000000    0.00000000    0.00000000
     atom    8 type  3   force =     0.00000000    0.00000000    0.00000000
     atom    9 type  3   force =     0.00000000    0.00000000    0.00000000
     atom   10 type  3   force =     0.00000000    0.00000000    0.00000000
     atom   11 type  3   force =     0.00000000    0.00000000    0.00000000
     atom   12 type  3   force =     0.00000000    0.00000000    0.00000000
     atom   13 type  3   force =     0.00000000    0.00000000    0.00000000
     atom   14 type  3   force =     0.00000000    0.00000000    0.00000000
     atom   15 type  3   force =     0.00000000    0.00000000    0.00000000
     atom   16 type  3   force =     0.00000000    0.00000000    0.00000000
     atom   17 type  3   force =     0.00000000    0.00000000    0.00000000
     atom   18 type  4   force =     0.00000000    0.00000000    0.00000000
     atom   19 type  4   force =     0.00000000    0.00000000    0.00000000
     atom   20 type  4   force =     0.00000000    0.00000000    0.00000000
     atom   21 type  4   force =     0.00000000    0.00000000    0.00000000
     atom   22 type  4   force =     0.00000000    0.00000000    0.00000000
     atom   23 type  5   force =     0.00000000    0.00000000    0.00000000
     The SCF correction term to forces
     atom    1 type  1   force =    -0.00000000   -0.00000000    0.00000000
     atom    2 type  1   force =    -0.00000000   -0.00000000    0.00000000
     atom    3 type  1   force =    -0.00000000   -0.00000000    0.00000000
     atom    4 type  1   force =     0.00000000    0.00000000    0.00000000
     atom    5 type  1   force =     0.00000000   -0.00000000    0.00000000
     atom    6 type  2   force =    -0.00000000    0.00000000    0.00000000
     atom    7 type  2   force =    -0.00000000    0.00000000    0.00000000
     atom    8 type  3   force =    -0.00000000    0.00000000    0.00000000
     atom    9 type  3   force =    -0.00000000    0.00000000    0.00000000
     atom   10 type  3   force =    -0.00164686    0.00338314    0.00049628
     atom   11 type  3   force =    -0.00617549   -0.00268160   -0.00810242
     atom   12 type  3   force =    -0.00209920   -0.00392157    0.00090859
     atom   13 type  3   force =    -0.00591471    0.00215717   -0.00860226
     atom   14 type  3   force =    -0.00052836    0.00462438    0.00074664
     atom   15 type  3   force =     0.00443054   -0.00341164   -0.00806019
     atom   16 type  3   force =    -0.00084867   -0.00393919    0.00103266
     atom   17 type  3   force =     0.00407599    0.00274147   -0.00893161
     atom   18 type  4   force =    -0.00089723   -0.00453920    0.01270886
     atom   19 type  4   force =     0.00064343    0.00057574    0.00102582
     atom   20 type  4   force =    -0.00718951    0.00060694   -0.00724431
     atom   21 type  4   force =    -0.00234859   -0.00015521    0.00242981
     atom   22 type  4   force =     0.00340666    0.00064291   -0.00620763
     atom   23 type  5   force =     0.00005966    0.00004107    0.00032065

     Total force =     0.566139     Total SCF correction =     0.029166

     Computing stress (Cartesian axis) and pressure

     negative rho (up, down):  9.094E-01 9.094E-01
          total   stress  (Ry/bohr**3)                   (kbar)     P=       98.64
   0.00076965   0.00000027   0.00010687          113.22        0.04       15.72
   0.00000027   0.00073525  -0.00001385            0.04      108.16       -2.04
   0.00010687  -0.00001385   0.00050663           15.72       -2.04       74.53

     Entering Dynamics:    iteration =    20
                           time      =   0.0041 pico-seconds

ATOMIC_POSITIONS (angstrom)
Hf            2.6699999570        2.8271230292        6.6039642186    0   0   0
Hf            1.2529906802        1.2862841814        5.0584662261    0   0   0
Hf            1.2554868986        7.3898042948        5.0880677674    0   0   0
Hf            4.0870092338        1.2862841814        5.0584662261    0   0   0
Hf            4.0845130154        7.3898042948        5.0880677674    0   0   0
Nb            2.6699999570        2.7969306055        3.5155832167    0   0   0
Nb            2.6699999570        5.8763786763        6.6349979432    0   0   0
Ta            1.2093730560        4.3409278516        5.0711258323    0   0   0
Ta            4.1306268580        4.3409278516        5.0711258323    0   0   0
Ta            1.3069782305        1.3137569764        2.0581421688
Ta            1.3025368332        1.3080059032        8.0952503576
Ta            1.3037816997        7.3762478805        2.0456368648
Ta            1.3074796586        7.3653866556        8.0866859046
Ta            4.0330227178        1.3138348272        2.0581556200
Ta            4.0374500234        1.3079830882        8.0951838406
Ta            4.0362202999        7.3761775054        2.0456475561
Ta            4.0325033187        7.3654289244        8.0866453287
Zr            2.6699915829        5.8667342206        3.5271514777
Zr            1.2408270835        4.3219712180        1.9974389604
Zr            1.2373220371        4.3542380239        8.1522457121
Zr            4.0992106628        4.3219490020        1.9971075236
Zr            4.1029835725        4.3542822582        8.1521234089
H             5.1740562063        4.3313944681        6.1666926329

     kinetic energy (Ekin) =           1.75111250 Ry
     temperature           =       13165.65699115 K
     Ekin + Etot (const)   =       -2941.24005223 Ry
     Ions kinetic stress =           33.82 (kbar)
                                     46.63          -0.68          50.39
                                     -0.68           0.02          -0.74
                                     50.39          -0.74          54.82

     The maximum number of steps has been reached.

     End of molecular dynamics calculation

     diffusion coefficients :
     atom     1   D =       0.00000000 cm^2/s
     atom     2   D =       0.00000000 cm^2/s
     atom     3   D =       0.00000000 cm^2/s
     atom     4   D =       0.00000000 cm^2/s
     atom     5   D =       0.00000000 cm^2/s
     atom     6   D =       0.00000000 cm^2/s
     atom     7   D =       0.00000000 cm^2/s
     atom     8   D =       0.00000000 cm^2/s
     atom     9   D =       0.00000000 cm^2/s
     atom    10   D =       0.00000000 cm^2/s
     atom    11   D =       0.00000000 cm^2/s
     atom    12   D =       0.00000000 cm^2/s
     atom    13   D =       0.00000000 cm^2/s
     atom    14   D =       0.00000000 cm^2/s
     atom    15   D =       0.00000000 cm^2/s
     atom    16   D =       0.00000000 cm^2/s
     atom    17   D =       0.00000000 cm^2/s
     atom    18   D =       0.00000000 cm^2/s
     atom    19   D =       0.00000006 cm^2/s
     atom    20   D =       0.00000006 cm^2/s
     atom    21   D =       0.00000007 cm^2/s
     atom    22   D =       0.00000007 cm^2/s
     atom    23   D =       0.00003759 cm^2/s

     < D > =       0.00000271 cm^2/s

     Writing all to output data dir outdir/pwscf.save/

     General routines

     Parallel routines

   This run was terminated on:  23:10: 6  11Jun2023

   JOB DONE.