     Program PWSCF v.7.2 starts on  8Jun2023 at 15:54: 4

     Reading input from md_Hf5Nb2Ta10Zr5H_15steps_1000eV_incident45_polar45.in
Warning: card &CELL ignored
Warning: card / ignored

     Current dimensions of program PWSCF are:
     Max number of different atomic species (ntypx) = 10
     Max number of k-points (npk) =  40000
     Max angular momentum in pseudopotentials (lmaxx) =  4

     File outdir/pwscf.md deleted, as requested

     gamma-point specific algorithms are used

     R & G space division:  proc/nbgrp/npool/nimage =      12
     Subspace diagonalization in iterative solution of the eigenvalue problem:
     one sub-group per band group will be used

     Using Slab Decomposition

     bravais-lattice index     =            0
     lattice parameter (alat)  =      21.4295  a.u.
     unit-cell volume          =    6741.9400 (a.u.)^3
     number of atoms/cell      =           23
     number of atomic types    =            5
     number of electrons       =       277.00
     number of Kohn-Sham states=          167
     kinetic-energy cutoff     =     120.0000  Ry
     charge density cutoff     =     480.0000  Ry
     scf convergence threshold =      1.0E-03
     mixing beta               =       0.7000
     number of iterations used =            8  TF        mixing
     energy convergence thresh.=      0.0E+00
     force convergence thresh. =      0.0E+00
     Exchange-correlation=  SLA  PW   PBX  PBC
                           (   1   4   3   4   0   0   0)
     nstep                     =           15

     celldm(1)=  21.429494  celldm(2)=   0.000000  celldm(3)=   0.000000
     celldm(4)=   0.000000  celldm(5)=   0.000000  celldm(6)=   0.000000

     crystal axes: (cart. coord. in units of alat)
               a(1) = (   1.000000   0.000000   0.000000 )
               a(2) = (   0.000000   0.765432   0.000000 )
               a(3) = (   0.000000   0.000000   0.895040 )

     reciprocal axes: (cart. coord. in units 2 pi/alat)
               b(1) = (  1.000000  0.000000  0.000000 )
               b(2) = (  0.000000  1.306452  0.000000 )
               b(3) = (  0.000000  0.000000  1.117268 )

     PseudoPot. # 1 for Hf read from file:
     q-e/pseudo/hf_pbe_v1.uspp.F.UPF
     MD5 check sum: 8ee9378dfe14276e333edf04c5e4aa26
     Pseudo is Ultrasoft + core correction, Zval = 12.0
     Generated by new atomic code, or converted to UPF format
     Using radial grid of  921 points,  8 beta functions with:
                l(1) =   0
                l(2) =   0
                l(3) =   0
                l(4) =   1
                l(5) =   1
                l(6) =   2
                l(7) =   2
                l(8) =   3
     Q(r) pseudized with  6 coefficients,  rinner =    1.200   1.200   1.200
                                                       1.200   1.200   1.200
                                                       1.200

     PseudoPot. # 2 for Nb read from file:
     q-e/pseudo/nb_pbe_v1.uspp.F.UPF
     MD5 check sum: 573aab8a2fa660278ed4a62cd769473f
     Pseudo is Ultrasoft + core correction, Zval = 13.0
     Generated by new atomic code, or converted to UPF format
     Using radial grid of  887 points,  6 beta functions with:
                l(1) =   0
                l(2) =   0
                l(3) =   1
                l(4) =   1
                l(5) =   2
                l(6) =   2
     Q(r) pseudized with  6 coefficients,  rinner =    1.000   1.000   1.000
                                                       1.000   1.000

     PseudoPot. # 3 for Ta read from file:
     q-e/pseudo/ta_pbe_v1.uspp.F.UPF
     MD5 check sum: f8bbe9446314a3b8ea5d9f3e3836c939
     Pseudo is Ultrasoft + core correction, Zval = 13.0
     Generated by new atomic code, or converted to UPF format
     Using radial grid of  921 points,  7 beta functions with:
                l(1) =   0
                l(2) =   0
                l(3) =   1
                l(4) =   1
                l(5) =   2
                l(6) =   2
                l(7) =   3
     Q(r) pseudized with  6 coefficients,  rinner =    1.300   1.300   1.300
                                                       1.300   1.300   1.300
                                                       1.300

     PseudoPot. # 4 for Zr read from file:
     q-e/pseudo/zr_pbe_v1.uspp.F.UPF
     MD5 check sum: 5db81b1e868ab7776c4564c113de050b
     Pseudo is Ultrasoft + core correction, Zval = 12.0
     Generated by new atomic code, or converted to UPF format
     Using radial grid of  887 points,  6 beta functions with:
                l(1) =   0
                l(2) =   0
                l(3) =   1
                l(4) =   1
                l(5) =   2
                l(6) =   2
     Q(r) pseudized with  6 coefficients,  rinner =    1.200   1.200   1.200
                                                       1.200   1.200

     PseudoPot. # 5 for H  read from file:
     q-e/pseudo/h_pbe_v1.4.uspp.F.UPF
     MD5 check sum: 761ae9a214b05c3daf00ab9f6b793d6f
     Pseudo is Ultrasoft, Zval =  1.0
     Generated by new atomic code, or converted to UPF format
     Using radial grid of  615 points,  2 beta functions with:
                l(1) =   0
                l(2) =   0
     Q(r) pseudized with  8 coefficients,  rinner =    0.700

     atomic species   valence    mass     pseudopotential
        Hf            12.00   178.49000     Hf( 1.00)
        Nb            13.00    92.90637     Nb( 1.00)
        Ta            13.00   180.94788     Ta( 1.00)
        Zr            12.00    91.22400     Zr( 1.00)
        H              1.00     2.01400     H ( 1.00)

     Starting magnetic structure
     atomic species   magnetization
        Hf           0.000
        Nb           0.000
        Ta           0.000
        Zr           0.000
        H            0.000

     No symmetry found

   Cartesian axes

     site n.     atom                  positions (alat units)
         1           Hf  tau(   1) = (   0.2354497   0.2493054   0.5823602  )
         2           Hf  tau(   2) = (   0.1104930   0.1134289   0.4460729  )
         3           Hf  tau(   3) = (   0.1107131   0.6516582   0.4486832  )
         4           Hf  tau(   4) = (   0.3604065   0.1134289   0.4460729  )
         5           Hf  tau(   5) = (   0.3601863   0.6516582   0.4486832  )
         6           Nb  tau(   6) = (   0.2354497   0.2466429   0.3100162  )
         7           Nb  tau(   7) = (   0.2354497   0.5181992   0.5850968  )
         8           Ta  tau(   8) = (   0.1066467   0.3827979   0.4471892  )
         9           Ta  tau(   9) = (   0.3642528   0.3827979   0.4471892  )
        10           Ta  tau(  10) = (   0.1152780   0.1158838   0.1815502  )
        11           Ta  tau(  11) = (   0.1148843   0.1153784   0.7138077  )
        12           Ta  tau(  12) = (   0.1149920   0.6504256   0.1804442  )
        13           Ta  tau(  13) = (   0.1153184   0.6494782   0.7130514  )
        14           Ta  tau(  14) = (   0.3556215   0.1158838   0.1815502  )
        15           Ta  tau(  15) = (   0.3560151   0.1153784   0.7138077  )
        16           Ta  tau(  16) = (   0.3559074   0.6504256   0.1804442  )
        17           Ta  tau(  17) = (   0.3555811   0.6494782   0.7130514  )
        18           Zr  tau(  18) = (   0.2354497   0.5173092   0.3110568  )
        19           Zr  tau(  19) = (   0.1096856   0.3811356   0.1763668  )
        20           Zr  tau(  20) = (   0.1093814   0.3839615   0.7186733  )
        21           Zr  tau(  21) = (   0.3612139   0.3811356   0.1763668  )
        22           Zr  tau(  22) = (   0.3615180   0.3839615   0.7186733  )
        23           H   tau(  23) = (   0.5513181   0.5149912   0.5795573  )

     number of k points=     1  Gaussian smearing, width (Ry)=  0.0220
                       cart. coord. in units 2pi/alat
        k(    1) = (   0.0000000   0.0000000   0.0000000), wk =   1.0000000

     Check: negative core charge=   -0.000002
     Generating pointlists ...
     new r_m :   0.0920 (alat units)  1.9717 (a.u.) for type    1
     new r_m :   0.0904 (alat units)  1.9374 (a.u.) for type    2
     new r_m :   0.0904 (alat units)  1.9374 (a.u.) for type    3
     new r_m :   0.0916 (alat units)  1.9625 (a.u.) for type    4
     new r_m :   0.1091 (alat units)  2.3386 (a.u.) for type    5

     Initial potential from superposition of free atoms

     starting charge     266.9726, renormalised to     277.0000

     negative rho (up, down):  9.211E-01 9.211E-01
     Starting wfcs are  287 randomized atomic wfcs

     Self-consistent Calculation

     iteration #  1     ecut=   120.00 Ry     beta= 0.70
     Davidson diagonalization with overlap
     ethr =  1.00E-02,  avg # of iterations =  2.0

     negative rho (up, down):  1.008E+00 1.008E+00

     total energy              =   -2927.96823333 Ry
     estimated scf accuracy    <     266.20974901 Ry

     total magnetization       =    -0.00 Bohr mag/cell
     absolute magnetization    =     0.07 Bohr mag/cell

[...]

     iteration # 14     ecut=   120.00 Ry     beta= 0.70
     Davidson diagonalization with overlap
     c_bands:  1 eigenvalues not converged
     ethr =  9.60E-07,  avg # of iterations = 14.0

[...]

     Magnetic moment per site  (integrated on atomic sphere of radius R)
     atom   1 (R=0.092)  charge=  9.4644  magn=  0.0001
     atom   2 (R=0.092)  charge=  9.0590  magn= -0.0000
     atom   3 (R=0.092)  charge=  9.0593  magn=  0.0002
     atom   4 (R=0.092)  charge=  9.0551  magn=  0.0001
     atom   5 (R=0.092)  charge=  9.0559  magn= -0.0001
     atom   6 (R=0.090)  charge= 10.3489  magn=  0.0000
     atom   7 (R=0.090)  charge= 10.3527  magn= -0.0000
     atom   8 (R=0.090)  charge=  9.8051  magn=  0.0003
     atom   9 (R=0.090)  charge=  9.7999  magn= -0.0000
     atom  10 (R=0.090)  charge=  9.7392  magn=  0.0001
     atom  11 (R=0.090)  charge=  9.7407  magn=  0.0007
     atom  12 (R=0.090)  charge=  9.7398  magn=  0.0003
     atom  13 (R=0.090)  charge=  9.7468  magn= -0.0003
     atom  14 (R=0.090)  charge=  9.7420  magn=  0.0001
     atom  15 (R=0.090)  charge=  9.7416  magn= -0.0001
     atom  16 (R=0.090)  charge=  9.7398  magn=  0.0003
     atom  17 (R=0.090)  charge=  9.7407  magn= -0.0002
     atom  18 (R=0.092)  charge=  9.4540  magn= -0.0001
     atom  19 (R=0.092)  charge=  8.9952  magn= -0.0000
     atom  20 (R=0.092)  charge=  8.9932  magn=  0.0001
     atom  21 (R=0.092)  charge=  8.9923  magn=  0.0003
     atom  22 (R=0.092)  charge=  8.9888  magn= -0.0001
     atom  23 (R=0.109)  charge=  1.2477  magn=  0.0000

     End of self-consistent calculation

 ------ SPIN UP ------------

          k = 0.0000 0.0000 0.0000 ( 74835 PWs)   bands (ev):

   -62.8343 -62.7898 -62.7670 -62.7462 -62.7212 -62.7133 -62.6785 -62.6685
   -62.6248 -62.5869 -56.4188 -56.3650 -56.2937 -56.2395 -54.7248 -48.3076
   -48.3043 -43.6812 -43.6596 -43.5832 -43.5565 -41.8359 -29.8223 -29.7932
   -29.7270 -29.7080 -29.6373 -29.5980 -29.5029 -29.4793 -29.4676 -29.3806
   -29.3477 -29.3016 -29.2919 -29.2811 -29.2538 -29.2360 -29.2083 -29.1919
   -29.1876 -29.1715 -29.1453 -29.1175 -28.9967 -28.9844 -28.9601 -28.9507
[...]
     4.0894   4.1368   4.2088   4.2431   4.3174   4.3397   4.4110   4.5096
     4.6102   4.6230   4.6771   4.7437   4.8891   5.0672   5.0834   5.0962
     5.1298   5.2436   5.2963   5.3394   5.4158   5.6093   5.6495   5.6701
     5.7012   5.7663   5.8208   5.9770   6.1338   6.1540   6.1844   6.2327
     6.2359   6.2973   6.4195   6.4463   6.5256   6.5880   6.6388   6.7266
     6.8198   6.8422   7.0163   7.0926   7.1542   7.2755   7.2894

     the Fermi energy is     5.3110 ev

!    total energy              =   -2942.41878555 Ry
     estimated scf accuracy    <       0.00039005 Ry
     smearing contrib. (-TS)   =      -0.09442791 Ry
     internal energy E=F+TS    =   -2942.32435764 Ry

     total magnetization       =     0.00 Bohr mag/cell
     absolute magnetization    =     0.00 Bohr mag/cell

     convergence has been achieved in   6 iterations

     negative rho (up, down):  9.084E-01 9.084E-01

     Forces acting on atoms (cartesian axes, Ry/au):

     atom    1 type  1   force =     0.00403829   -0.03526769    0.00600649
     atom    2 type  1   force =    -0.11348891   -0.01278447   -0.00251422
     atom    3 type  1   force =    -0.10983787    0.01498595   -0.00771489
     atom    4 type  1   force =     0.12055731   -0.01306581   -0.00166661
     atom    5 type  1   force =     0.11527399    0.01688015   -0.00774582
     atom    6 type  2   force =    -0.00148489   -0.01638938    0.01254168
     atom    7 type  2   force =    -1.22216081    0.38056562    0.61653349
     atom    8 type  3   force =    -0.10557082   -0.00112001   -0.00739827
     atom    9 type  3   force =     0.11209693   -0.01205024   -0.02377963
     atom   10 type  3   force =    -0.02082723   -0.03232194   -0.05835603
     atom   11 type  3   force =    -0.02339159   -0.04372744    0.05705860
     atom   12 type  3   force =    -0.01943925    0.03351625   -0.05462905
     atom   13 type  3   force =    -0.01930905    0.04849811    0.06730006
     atom   14 type  3   force =     0.01902661   -0.03111107   -0.05645967
     atom   15 type  3   force =     0.01888351   -0.03689262    0.05457785
     atom   16 type  3   force =     0.01780114    0.03659341   -0.05389826
     atom   17 type  3   force =     0.00457061    0.03586512    0.06362422
     atom   18 type  4   force =    -0.00215504    0.02743428   -0.01124548
     atom   19 type  4   force =    -0.12515562   -0.00387683   -0.11588081
     atom   20 type  4   force =    -0.12476869   -0.00493916    0.12144315
     atom   21 type  4   force =     0.12475480   -0.00507268   -0.11602471
     atom   22 type  4   force =     0.12095368    0.00215791    0.12679048
     atom   23 type  5   force =     1.22963290   -0.34787745   -0.60856256
     The non-local contrib.  to forces
     atom    1 type  1   force =     0.00630744   -0.01121886    0.02237853
     atom    2 type  1   force =    -0.23963075   -0.15972044    0.01731678
     atom    3 type  1   force =    -0.22299984    0.14949052   -0.01722969
     atom    4 type  1   force =     0.24464601   -0.16486812    0.02061889
     atom    5 type  1   force =     0.24720079    0.13329516   -0.01908128
     atom    6 type  2   force =     0.00369044   -0.04339990   -0.05906070
     atom    7 type  2   force =    -0.05044062    0.05067222    0.04303508
     atom    8 type  3   force =    -0.25337785    0.00660996    0.00659257
     atom    9 type  3   force =     0.24899874    0.04640805    0.03516620
     atom   10 type  3   force =    -0.20599659    0.00201724   -0.20630825
     atom   11 type  3   force =    -0.20858830    0.02300065    0.18116792
     atom   12 type  3   force =    -0.19827508   -0.02003583   -0.17735275
     atom   13 type  3   force =    -0.17551445   -0.05813278    0.15680890
     atom   14 type  3   force =     0.20709395    0.00247988   -0.20172965
     atom   15 type  3   force =     0.21680123    0.00669950    0.18521115
     atom   16 type  3   force =     0.19940076   -0.01932784   -0.17540524
     atom   17 type  3   force =     0.20164681   -0.00341183    0.19927953
     atom   18 type  4   force =    -0.00034047    0.04737054   -0.05791448
     atom   19 type  4   force =     0.06047054    0.01218601    0.07572830
     atom   20 type  4   force =     0.04835679   -0.02790070   -0.05854267
     atom   21 type  4   force =    -0.05681430    0.01700942    0.07484060
     atom   22 type  4   force =    -0.03831198   -0.03016128   -0.06175092
     atom   23 type  5   force =    -0.19331151    0.02897807    0.05391875
     The ionic contribution  to forces
     atom    1 type  1   force =    -0.11669508   -5.06454348   13.79184037
     atom    2 type  1   force =   -47.14372605   -6.07174295    0.68208914
     atom    3 type  1   force =   -47.41381064    6.54013996   -1.14882472
     atom    4 type  1   force =    47.08967288   -6.09042000    0.67112394
     atom    5 type  1   force =    47.30017688    6.96509804   -1.27016442
     atom    6 type  2   force =    -0.06108401   -3.66982352  -13.82562961
     atom    7 type  2   force =    -6.18227579    4.96436640   16.13654092
     atom    8 type  3   force =   -60.88298105   -0.39190179   -0.53511224
     atom    9 type  3   force =    60.95187423   -1.25381671   -1.24556786
     atom   10 type  3   force =   -43.39536813   -2.05968074  -22.63470914
     atom   11 type  3   force =   -42.54499963   -0.79754017   21.71413756
     atom   12 type  3   force =   -42.62381513    0.83797518  -21.73497974
     atom   13 type  3   force =   -43.73453119    2.68395387   23.12589202
     atom   14 type  3   force =    43.36373019   -2.06281334  -22.65014348
     atom   15 type  3   force =    42.50170839   -0.81827740   21.73805983
     atom   16 type  3   force =    42.58040231    0.85829931  -21.77704655
     atom   17 type  3   force =    43.56740825    2.60531910   23.09508710
     atom   18 type  4   force =    -0.15417634    4.35083959  -14.22789405
     atom   19 type  4   force =   -42.99884709    0.89731207  -25.11349066
     atom   20 type  4   force =   -43.30799241   -1.36914648   25.49243467
     atom   21 type  4   force =    42.95572901    0.88272759  -25.16332107
     atom   22 type  4   force =    43.17572191   -1.37209102   25.70894494
     atom   23 type  5   force =     7.07387850   -0.56423349   -0.82926695
     The local contribution  to forces
     atom    1 type  1   force =     0.13587385    5.03761251  -13.80809841
     atom    2 type  1   force =    47.29723757    6.22224401   -0.70489511
     atom    3 type  1   force =    47.55337514   -6.67648866    1.15434207
     atom    4 type  1   force =   -47.21047131    6.24553645   -0.69389012
     atom    5 type  1   force =   -47.42457735   -7.07555390    1.27841713
     atom    6 type  2   force =     0.08195281    3.69512994   13.89375058
     atom    7 type  2   force =     5.03213205   -4.63095885  -15.56258005
     atom    8 type  3   force =    61.07851425    0.38042441    0.51500485
     atom    9 type  3   force =   -61.09685879    1.18710799    1.17579683
     atom   10 type  3   force =    43.62214039    2.01950109   22.80118204
     atom   11 type  3   force =    42.77731811    0.72320284  -21.85565335
     atom   12 type  3   force =    42.84483218   -0.77652744   21.87668213
     atom   13 type  3   force =    43.92953632   -2.56653433  -23.22881873
     atom   14 type  3   force =   -43.55163238    2.01879690   22.81155137
     atom   15 type  3   force =   -42.70122106    0.76461025  -21.88452159
     atom   16 type  3   force =   -42.76051116   -0.79108317   21.91566618
     atom   17 type  3   force =   -43.76238682   -2.54755124  -23.24254368
     atom   18 type  4   force =     0.17599830   -4.36892702   14.26905163
     atom   19 type  4   force =    42.84009375   -0.91456483   24.93348987
     atom   20 type  4   force =    43.16054377    1.38896331  -25.32015266
     atom   21 type  4   force =   -42.76497222   -0.90534594   24.98283283
     atom   22 type  4   force =   -43.00599974    1.39825306  -25.52471943
     atom   23 type  5   force =    -5.64629928    0.18741874    0.16643581
     The core correction contribution to forces
     atom    1 type  1   force =     0.00010298   -0.00008976   -0.00098421
     atom    2 type  1   force =    -0.01164572   -0.00243298    0.00080334
     atom    3 type  1   force =    -0.01193057    0.00290871    0.00135324
     atom    4 type  1   force =     0.01331474   -0.00366105   -0.00039859
     atom    5 type  1   force =     0.00990450   -0.00050691   -0.00136237
     atom    6 type  2   force =    -0.00019604    0.00215593    0.00250301
     atom    7 type  2   force =     0.00220695   -0.00236740   -0.00123164
     atom    8 type  3   force =    -0.03220224    0.00117164    0.00176136
     atom    9 type  3   force =     0.02879419    0.00223553    0.00394824
     atom   10 type  3   force =    -0.02174579    0.00942314   -0.01626192
     atom   11 type  3   force =    -0.02307260    0.01047021    0.01636976
     atom   12 type  3   force =    -0.02206430   -0.00927939   -0.01661397
     atom   13 type  3   force =    -0.01845238   -0.01114554    0.01352108
     atom   14 type  3   force =     0.02178924    0.00978479   -0.01588493
     atom   15 type  3   force =     0.02309942    0.00891889    0.01645748
     atom   16 type  3   force =     0.02131562   -0.00950677   -0.01629345
     atom   17 type  3   force =     0.02081400   -0.01085206    0.01551748
     atom   18 type  4   force =     0.00020226   -0.00257245    0.00290420
     atom   19 type  4   force =    -0.00963112   -0.00015199   -0.00970230
     atom   20 type  4   force =    -0.00899075    0.00124731    0.00870715
     atom   21 type  4   force =     0.00962852   -0.00041279   -0.00965017
     atom   22 type  4   force =     0.00886421    0.00133039    0.00891169
     atom   23 type  5   force =     0.00000000    0.00000000    0.00000000
     The Hubbard contrib.    to forces
     atom    1 type  1   force =     0.00000000    0.00000000    0.00000000
     atom    2 type  1   force =     0.00000000    0.00000000    0.00000000
     atom    3 type  1   force =     0.00000000    0.00000000    0.00000000
     atom    4 type  1   force =     0.00000000    0.00000000    0.00000000
     atom    5 type  1   force =     0.00000000    0.00000000    0.00000000
     atom    6 type  2   force =     0.00000000    0.00000000    0.00000000
     atom    7 type  2   force =     0.00000000    0.00000000    0.00000000
     atom    8 type  3   force =     0.00000000    0.00000000    0.00000000
     atom    9 type  3   force =     0.00000000    0.00000000    0.00000000
     atom   10 type  3   force =     0.00000000    0.00000000    0.00000000
     atom   11 type  3   force =     0.00000000    0.00000000    0.00000000
     atom   12 type  3   force =     0.00000000    0.00000000    0.00000000
     atom   13 type  3   force =     0.00000000    0.00000000    0.00000000
     atom   14 type  3   force =     0.00000000    0.00000000    0.00000000
     atom   15 type  3   force =     0.00000000    0.00000000    0.00000000
     atom   16 type  3   force =     0.00000000    0.00000000    0.00000000
     atom   17 type  3   force =     0.00000000    0.00000000    0.00000000
     atom   18 type  4   force =     0.00000000    0.00000000    0.00000000
     atom   19 type  4   force =     0.00000000    0.00000000    0.00000000
     atom   20 type  4   force =     0.00000000    0.00000000    0.00000000
     atom   21 type  4   force =     0.00000000    0.00000000    0.00000000
     atom   22 type  4   force =     0.00000000    0.00000000    0.00000000
     atom   23 type  5   force =     0.00000000    0.00000000    0.00000000
     The SCF correction term to forces
     atom    1 type  1   force =    -0.00000000    0.00000000    0.00000000
     atom    2 type  1   force =    -0.01290758   -0.00110800    0.00201036
     atom    3 type  1   force =    -0.01165557   -0.00104046    0.00248293
     atom    4 type  1   force =    -0.01378863    0.00037103    0.00071801
     atom    5 type  1   force =    -0.01461444   -0.00542811    0.00428385
     atom    6 type  2   force =    -0.02303170   -0.00042770    0.00081713
     atom    7 type  2   force =    -0.02096702   -0.00112264    0.00060791
     atom    8 type  3   force =    -0.01270755    0.00259988    0.00419392
     atom    9 type  3   force =    -0.01789506    0.00603901    0.00671569
     atom   10 type  3   force =    -0.01704073   -0.00355856   -0.00242003
     atom   11 type  3   force =    -0.02123278   -0.00283685    0.00087543
     atom   12 type  3   force =    -0.01730054    0.00140785   -0.00252599
     atom   13 type  3   force =    -0.01753096    0.00038100   -0.00026447
     atom   14 type  3   force =    -0.01913801    0.00066483   -0.00041426
     atom   15 type  3   force =    -0.01868808    0.00118025   -0.00079029
     atom   16 type  3   force =    -0.01999001   -0.00176399   -0.00098046
     atom   17 type  3   force =    -0.02009525   -0.00761473   -0.00387750
     atom   18 type  4   force =    -0.02102241    0.00074773    0.00244594
     atom   19 type  4   force =    -0.01442532    0.00136603   -0.00206729
     atom   20 type  4   force =    -0.01386970    0.00192152   -0.00116460
     atom   21 type  4   force =    -0.01599984    0.00097316   -0.00088818
     atom   22 type  4   force =    -0.01650432    0.00485086   -0.00475708
     atom   23 type  5   force =    -0.00181841   -0.00001664    0.00018855

     Total force =     2.064507     Total SCF correction =     0.082155

     Entering Dynamics:    iteration =    15
                           time      =   0.0030 pico-seconds

ATOMIC_POSITIONS (angstrom)
Hf            2.6699999570        2.8271230292        6.6039642186    0   0   0
Hf            1.2522358089        1.2861947592        5.0584575753
Hf            1.2547887232        7.3898698502        5.0880872391
Hf            4.0877702663        1.2862120168        5.0584448203
Hf            4.0852477811        7.3898605455        5.0880629826
Nb            2.6699909455        2.7967465094        3.5157346378
Nb            2.6202380364        5.8833594037        6.6462479943
Ta            1.2087317482        4.3409482924        5.0710911565
Ta            4.1313195209        4.3409374962        5.0711030040
Ta            1.3071140521        1.3139135555        2.0584050578
Ta            1.3026636535        1.3081516790        8.0949307740
Ta            1.3038874680        7.3760565209        2.0458883284
Ta            1.3076469581        7.3652730989        8.0863818016
Ta            4.0328791606        1.3139222654        2.0584133075
Ta            4.0373516055        1.3081597508        8.0949407643
Ta            4.0361075424        7.3760611331        2.0458945285
Ta            4.0324035065        7.3653194773        8.0863911254
Zr            2.6700178923        5.8666103022        3.5273345188
Zr            1.2422287127        4.3220180425        1.9985173732
Zr            1.2388451711        4.3542207744        8.1512295187
Zr            4.0977568131        4.3220094645        1.9985344527
Zr            4.1013036712        4.3541587599        8.1512571928
H             3.8106914837        5.5273548310        6.0482563010

     kinetic energy (Ekin) =          17.69758880 Ry
     temperature           =       84673.58398446 K
     Ekin + Etot (const)   =       -2924.72119674 Ry

     The maximum number of steps has been reached.

     End of molecular dynamics calculation

     diffusion coefficients :
     atom     1   D =       0.00000000 cm^2/s
     atom     2   D =       0.00000000 cm^2/s
     atom     3   D =       0.00000000 cm^2/s
     atom     4   D =       0.00000000 cm^2/s
     atom     5   D =       0.00000000 cm^2/s
     atom     6   D =       0.00000000 cm^2/s
     atom     7   D =       0.00001450 cm^2/s
     atom     8   D =       0.00000000 cm^2/s
     atom     9   D =       0.00000000 cm^2/s
     atom    10   D =       0.00000000 cm^2/s
     atom    11   D =       0.00000000 cm^2/s
     atom    12   D =       0.00000000 cm^2/s
     atom    13   D =       0.00000000 cm^2/s
     atom    14   D =       0.00000000 cm^2/s
     atom    15   D =       0.00000000 cm^2/s
     atom    16   D =       0.00000000 cm^2/s
     atom    17   D =       0.00000000 cm^2/s
     atom    18   D =       0.00000000 cm^2/s
     atom    19   D =       0.00000003 cm^2/s
     atom    20   D =       0.00000002 cm^2/s
     atom    21   D =       0.00000003 cm^2/s
     atom    22   D =       0.00000003 cm^2/s
     atom    23   D =       0.03462598 cm^2/s

     < D > =       0.00157457 cm^2/s

     Writing all to output data dir outdir/pwscf.save/

     General routines

     Parallel routines

   This run was terminated on:  17:46:19   8Jun2023

   JOB DONE.