     Program PWSCF v.7.2 starts on  5Jun2023 at  2:13: 9

     Reading input from md_Hf5Nb2Ta10Zr5H_10steps.in
Warning: card &CELL ignored
Warning: card / ignored

     Current dimensions of program PWSCF are:
     Max number of different atomic species (ntypx) = 10
     Max number of k-points (npk) =  40000
     Max angular momentum in pseudopotentials (lmaxx) =  4

     File outdir/pwscf.update deleted, as requested

     File outdir/pwscf.md deleted, as requested

     gamma-point specific algorithms are used

     R & G space division:  proc/nbgrp/npool/nimage =      12
     Subspace diagonalization in iterative solution of the eigenvalue problem:
     one sub-group per band group will be used

     Using Slab Decomposition

     bravais-lattice index     =            0
     lattice parameter (alat)  =      13.3037  a.u.
     unit-cell volume          =    3744.5260 (a.u.)^3
     number of atoms/cell      =           23
     number of atomic types    =            5
     number of electrons       =       277.00
     number of Kohn-Sham states=          167
     kinetic-energy cutoff     =     120.0000  Ry
     charge density cutoff     =     480.0000  Ry
     scf convergence threshold =      1.0E-03
     mixing beta               =       0.7000
     number of iterations used =            8  TF        mixing
     energy convergence thresh.=      0.0E+00
     force convergence thresh. =      0.0E+00
     Exchange-correlation=  SLA  PW   PBX  PBC
                           (   1   4   3   4   0   0   0)
     nstep                     =           10

     celldm(1)=  13.303672  celldm(2)=   0.000000  celldm(3)=   0.000000
     celldm(4)=   0.000000  celldm(5)=   0.000000  celldm(6)=   0.000000

     crystal axes: (cart. coord. in units of alat)
               a(1) = (   1.000000   0.000000   0.000000 )
               a(2) = (   0.000000   1.048295   0.000000 )
               a(3) = (   0.000000   0.000000   1.517045 )

     reciprocal axes: (cart. coord. in units 2 pi/alat)
               b(1) = (  1.000000  0.000000  0.000000 )
               b(2) = (  0.000000  0.953930  0.000000 )
               b(3) = (  0.000000  0.000000  0.659176 )

     PseudoPot. # 1 for Hf read from file:
     q-e/pseudo/hf_pbe_v1.uspp.F.UPF
     MD5 check sum: 8ee9378dfe14276e333edf04c5e4aa26
     Pseudo is Ultrasoft + core correction, Zval = 12.0
     Generated by new atomic code, or converted to UPF format
     Using radial grid of  921 points,  8 beta functions with:
                l(1) =   0
                l(2) =   0
                l(3) =   0
                l(4) =   1
                l(5) =   1
                l(6) =   2
                l(7) =   2
                l(8) =   3
     Q(r) pseudized with  6 coefficients,  rinner =    1.200   1.200   1.200
                                                       1.200   1.200   1.200
                                                       1.200

     PseudoPot. # 2 for Nb read from file:
     q-e/pseudo/nb_pbe_v1.uspp.F.UPF
     MD5 check sum: 573aab8a2fa660278ed4a62cd769473f
     Pseudo is Ultrasoft + core correction, Zval = 13.0
     Generated by new atomic code, or converted to UPF format
     Using radial grid of  887 points,  6 beta functions with:
                l(1) =   0
                l(2) =   0
                l(3) =   1
                l(4) =   1
                l(5) =   2
                l(6) =   2
     Q(r) pseudized with  6 coefficients,  rinner =    1.000   1.000   1.000
                                                       1.000   1.000

     PseudoPot. # 3 for Ta read from file:
     q-e/pseudo/ta_pbe_v1.uspp.F.UPF
     MD5 check sum: f8bbe9446314a3b8ea5d9f3e3836c939
     Pseudo is Ultrasoft + core correction, Zval = 13.0
     Generated by new atomic code, or converted to UPF format
     Using radial grid of  921 points,  7 beta functions with:
                l(1) =   0
                l(2) =   0
                l(3) =   1
                l(4) =   1
                l(5) =   2
                l(6) =   2
                l(7) =   3
     Q(r) pseudized with  6 coefficients,  rinner =    1.300   1.300   1.300
                                                       1.300   1.300   1.300
                                                       1.300

     PseudoPot. # 4 for Zr read from file:
     q-e/pseudo/zr_pbe_v1.uspp.F.UPF
     MD5 check sum: 5db81b1e868ab7776c4564c113de050b
     Pseudo is Ultrasoft + core correction, Zval = 12.0
     Generated by new atomic code, or converted to UPF format
     Using radial grid of  887 points,  6 beta functions with:
                l(1) =   0
                l(2) =   0
                l(3) =   1
                l(4) =   1
                l(5) =   2
                l(6) =   2
     Q(r) pseudized with  6 coefficients,  rinner =    1.200   1.200   1.200
                                                       1.200   1.200

     PseudoPot. # 5 for H  read from file:
     q-e/pseudo/h_pbe_v1.4.uspp.F.UPF
     MD5 check sum: 761ae9a214b05c3daf00ab9f6b793d6f
     Pseudo is Ultrasoft, Zval =  1.0
     Generated by new atomic code, or converted to UPF format
     Using radial grid of  615 points,  2 beta functions with:
                l(1) =   0
                l(2) =   0
     Q(r) pseudized with  8 coefficients,  rinner =    0.700

     atomic species   valence    mass     pseudopotential
        Hf            12.00   178.49000     Hf( 1.00)
        Nb            13.00    92.90637     Nb( 1.00)
        Ta            13.00   180.94788     Ta( 1.00)
        Zr            12.00    91.22400     Zr( 1.00)
        H              1.00     2.01400     H ( 1.00)

     Starting magnetic structure
     atomic species   magnetization
        Hf           0.000
        Nb           0.000
        Ta           0.000
        Zr           0.000
        H            0.000

     No symmetry found

   Cartesian axes

     site n.     atom                  positions (alat units)
         1           Hf  tau(   1) = (   0.2656250   0.2656250   0.9957387  )
         2           Hf  tau(   2) = (   0.0284091   0.0284091   0.7585227  )
         3           Hf  tau(   3) = (   0.0284091   0.9772727   0.7585227  )
         4           Hf  tau(   4) = (   0.5028409   0.0284091   0.7585227  )
         5           Hf  tau(   5) = (   0.5028409   0.9772727   0.7585227  )
         6           Nb  tau(   6) = (   0.2656250   0.2656250   0.5213068  )
         7           Nb  tau(   7) = (   0.2656250   0.7400569   0.9957387  )
         8           Ta  tau(   8) = (   0.0284091   0.5028409   0.7585227  )
         9           Ta  tau(   9) = (   0.5028409   0.5028409   0.7585227  )
        10           Ta  tau(  10) = (   0.0284091   0.0284091   0.2840909  )
        11           Ta  tau(  11) = (   0.0284091   0.0284091   1.2329545  )
        12           Ta  tau(  12) = (   0.0284091   0.9772727   0.2840909  )
        13           Ta  tau(  13) = (   0.0284091   0.9772727   1.2329545  )
        14           Ta  tau(  14) = (   0.5028409   0.0284091   0.2840909  )
        15           Ta  tau(  15) = (   0.5028409   0.0284091   1.2329545  )
        16           Ta  tau(  16) = (   0.5028409   0.9772727   0.2840909  )
        17           Ta  tau(  17) = (   0.5028409   0.9772727   1.2329545  )
        18           Zr  tau(  18) = (   0.2656250   0.7400569   0.5213068  )
        19           Zr  tau(  19) = (   0.0284091   0.5028409   0.2840909  )
        20           Zr  tau(  20) = (   0.0284091   0.5028409   1.2329545  )
        21           Zr  tau(  21) = (   0.5028409   0.5028409   0.2840909  )
        22           Zr  tau(  22) = (   0.5028409   0.5028409   1.2329545  )
        23           H   tau(  23) = (   0.7159091   0.5028409   0.7585227  )

     number of k points=     1  Gaussian smearing, width (Ry)=  0.0220
                       cart. coord. in units 2pi/alat
        k(    1) = (   0.0000000   0.0000000   0.0000000), wk =   1.0000000

     Check: negative core charge=   -0.000002
     Generating pointlists ...
     new r_m :   0.0410 (alat units)  0.5457 (a.u.) for type    1
     new r_m :   0.1695 (alat units)  2.2548 (a.u.) for type    2
     new r_m :   0.0410 (alat units)  0.5457 (a.u.) for type    3
     new r_m :   0.1695 (alat units)  2.2548 (a.u.) for type    4
     new r_m :   0.0879 (alat units)  1.1693 (a.u.) for type    5

     Initial potential from superposition of free atoms

     starting charge     266.9726, renormalised to     277.0000

     negative rho (up, down):  4.713E-01 4.713E-01
     Starting wfcs are  287 randomized atomic wfcs

     Self-consistent Calculation

     iteration #  1     ecut=   120.00 Ry     beta= 0.70
     Davidson diagonalization with overlap
     ethr =  1.00E-02,  avg # of iterations =  6.0

     negative rho (up, down):  5.739E-01 5.741E-01

     total energy              =   -2626.12998428 Ry
     estimated scf accuracy    <     341.96838177 Ry

     total magnetization       =    -0.01 Bohr mag/cell
     absolute magnetization    =     0.12 Bohr mag/cell

[...]

     Magnetic moment per site  (integrated on atomic sphere of radius R)
     atom   1 (R=0.041)  charge=  0.0281  magn=  0.0000
     atom   2 (R=0.041)  charge=  0.2750  magn=  0.0001
     atom   3 (R=0.041)  charge=  0.2758  magn=  0.0001
     atom   4 (R=0.041)  charge=  0.2750  magn=  0.0000
     atom   5 (R=0.041)  charge=  0.2758  magn=  0.0000
     atom   6 (R=0.169)  charge= 10.9488  magn=  0.0068
     atom   7 (R=0.169)  charge= 10.9558  magn=  0.0023
     atom   8 (R=0.041)  charge=  0.0850  magn= -0.0000
     atom   9 (R=0.041)  charge=  0.0859  magn= -0.0000
     atom  10 (R=0.041)  charge=  0.3859  magn= -0.0000
     atom  11 (R=0.041)  charge=  0.3858  magn= -0.0000
     atom  12 (R=0.041)  charge=  0.3867  magn= -0.0000
     atom  13 (R=0.041)  charge=  0.3869  magn= -0.0000
     atom  14 (R=0.041)  charge=  0.3859  magn= -0.0000
     atom  15 (R=0.041)  charge=  0.3858  magn=  0.0000
     atom  16 (R=0.041)  charge=  0.3868  magn=  0.0000
     atom  17 (R=0.041)  charge=  0.3869  magn= -0.0000
     atom  18 (R=0.169)  charge=  9.8589  magn=  0.0143
     atom  19 (R=0.169)  charge=  9.5983  magn=  0.0041
     atom  20 (R=0.169)  charge=  9.5935  magn=  0.0056
     atom  21 (R=0.169)  charge=  9.6114  magn=  0.0460
     atom  22 (R=0.169)  charge=  9.6013  magn=  0.0174
     atom  23 (R=0.088)  charge=  0.9149  magn=  0.0002

     End of self-consistent calculation

 ------ SPIN UP ------------

          k = 0.0000 0.0000 0.0000 ( 41567 PWs)   bands (ev):

  -154.5149-154.5144-154.4982-154.4976-148.6013-148.5940 -60.4972 -60.4907
   -60.4793 -60.4729 -60.3603 -60.3549 -60.3466 -60.3411 -56.1537 -56.1234
   -56.1212 -56.1090 -56.1068 -55.6897 -50.4168 -50.4097 -49.9773 -49.9542
   -49.8628 -49.8531 -49.8397 -42.6504 -42.6134 -36.9662 -36.9387 -36.9348
   -36.9206 -36.5506 -31.1394 -31.1247 -31.1104 -31.0965 -25.0239 -24.9735
   -22.7218 -22.5420 -22.4671 -22.3689 -22.1985 -22.1045 -18.9235 -18.8655
   -18.7555 -18.7384 -18.7056 -18.7045 -18.6758 -18.5534 -18.5379 -15.2476
   -15.1452 -15.1092 -15.0862 -15.0572 -14.9908 -14.9433 -14.9129 -14.8642
[...]
    13.7205  13.8676  13.8797  13.9275  13.9898  14.1609  14.2596  14.3270
    14.5050  14.5324  14.5922  14.6515  14.7524  14.8215  15.0300

     the Fermi energy is    12.0484 ev

!    total energy              =   -2631.10383197 Ry
     estimated scf accuracy    <       0.00015789 Ry
     smearing contrib. (-TS)   =      -0.07772356 Ry
     internal energy E=F+TS    =   -2631.02610841 Ry

     total magnetization       =     0.63 Bohr mag/cell
     absolute magnetization    =     0.87 Bohr mag/cell

     convergence has been achieved in   6 iterations

     negative rho (up, down):  6.946E-01 6.953E-01

     Forces acting on atoms (cartesian axes, Ry/au):

     atom    1 type  1   force =    -0.00272858    0.07577450   -0.00545663
     atom    2 type  1   force =    -0.06783346   63.84846779    0.01125249
     atom    3 type  1   force =    -0.06983017  -63.84867071   -0.00144034
     atom    4 type  1   force =     0.06738610   63.84834179    0.01128130
     atom    5 type  1   force =     0.06972095  -63.84860826   -0.00041548
     atom    6 type  2   force =    -0.00453739    0.13103481    0.01478969
     atom    7 type  2   force =    -0.00407824   -0.13201525   -0.01862879
     atom    8 type  3   force =    -0.00916016   -0.00118770    0.00484742
     atom    9 type  3   force =    -0.33015537   -0.00177676    0.00734910
     atom   10 type  3   force =    -0.04832423  109.85021255   -0.06749778
     atom   11 type  3   force =    -0.04685946  109.82729363    0.05228490
     atom   12 type  3   force =    -0.04715845 -109.84849544   -0.05942065
     atom   13 type  3   force =    -0.05220226 -109.82816640    0.06873795
     atom   14 type  3   force =     0.04835551  109.85129628   -0.06689587
     atom   15 type  3   force =     0.04703671  109.82729401    0.05227714
     atom   16 type  3   force =     0.04744237 -109.84955172   -0.05973320
     atom   17 type  3   force =     0.05242085 -109.82829183    0.06834544
     atom   18 type  4   force =    -0.00349710   -0.07434035   -0.00427642
     atom   19 type  4   force =     0.01926088   -0.01498468    0.02540395
     atom   20 type  4   force =     0.01972670    0.01511811   -0.02734472
     atom   21 type  4   force =    -0.01975524   -0.01451863    0.02650376
     atom   22 type  4   force =    -0.02008316    0.01465313   -0.02965088
     atom   23 type  5   force =     0.35485319    0.00112111   -0.00231238
     The non-local contrib.  to forces
     atom    1 type  1   force =     0.00263662   -0.40715198    0.07863237
     atom    2 type  1   force =     0.10803483  -60.50452347    0.01736145
     atom    3 type  1   force =     0.10685720   60.50578554   -0.01061401
     atom    4 type  1   force =    -0.10652566  -60.50609081    0.01774891
     atom    5 type  1   force =    -0.10522406   60.50727566   -0.01005455
     atom    6 type  2   force =    -0.00072321    0.08282063   -0.00073298
     atom    7 type  2   force =     0.00018032   -0.07897971   -0.01201845
     atom    8 type  3   force =    -0.43052022    0.00315102   -0.00116264
     atom    9 type  3   force =     0.17861031    0.00246129   -0.00011559
     atom   10 type  3   force =     0.09143850  -42.49120174    0.06103306
     atom   11 type  3   force =     0.10628329  -42.50385863   -0.08070134
     atom   12 type  3   force =     0.10583275   42.47635186    0.07619291
     atom   13 type  3   force =     0.08660092   42.51764542   -0.06107438
     atom   14 type  3   force =    -0.09112080  -42.48953339    0.06119705
     atom   15 type  3   force =    -0.10588438  -42.50434946   -0.08085118
     atom   16 type  3   force =    -0.10533985   42.47517777    0.07616839
     atom   17 type  3   force =    -0.08638676   42.51805605   -0.06152129
     atom   18 type  4   force =    -0.00080201   -0.05973955   -0.01534030
     atom   19 type  4   force =     0.09957058   -0.00640231    0.06666221
     atom   20 type  4   force =     0.08990870   -0.00249719   -0.06135786
     atom   21 type  4   force =    -0.09635569   -0.00590498    0.06552070
     atom   22 type  4   force =    -0.08899444   -0.00210069   -0.06248300
     atom   23 type  5   force =    -0.07393378    0.00024837   -0.00034693
     The ionic contribution  to forces
     atom    1 type  1   force =    -0.08742277   11.45142930   13.61172821
     atom    2 type  1   force =   -17.93636677  161.79276774    0.15027031
     atom    3 type  1   force =   -17.93621605 -161.79200128   -0.14970979
     atom    4 type  1   force =    17.91275232  161.74565623    0.15033190
     atom    5 type  1   force =    17.91254402 -161.74445711   -0.14964809
     atom    6 type  2   force =    -0.09487702   12.58772476  -14.42719016
     atom    7 type  2   force =    -0.09485889  -12.58798619   14.42764545
     atom    8 type  3   force =   -20.97465654   -0.00093374    0.00110629
     atom    9 type  3   force =    18.90104263   -0.00348101    0.00376995
     atom   10 type  3   force =   -12.74535274  190.80980893  -21.86424589
     atom   11 type  3   force =   -12.59892336  191.43401639   21.70772071
     atom   12 type  3   force =   -12.59880718 -191.43376059  -21.70801250
     atom   13 type  3   force =   -12.74542723 -190.80965098   21.86405001
     atom   14 type  3   force =    12.74120248  190.80370943  -21.88924065
     atom   15 type  3   force =    12.59478374  191.42793698   21.73266732
     atom   16 type  3   force =    12.59465347 -191.42760795  -21.73302663
     atom   17 type  3   force =    12.74128419 -190.80351861   21.88901593
     atom   18 type  4   force =    -0.08771841  -11.45122745  -13.61173077
     atom   19 type  4   force =   -12.13390452    0.33348121  -20.99974260
     atom   20 type  4   force =   -12.13422390   -0.33371075   20.99919516
     atom   21 type  4   force =    12.11608570    0.33344058  -21.09089908
     atom   22 type  4   force =    12.11649275   -0.33375121   21.09004117
     atom   23 type  5   force =     2.53791409    0.00211531   -0.00409626
     The local contribution  to forces
     atom    1 type  1   force =     0.08267931  -10.93927319  -13.69677737
     atom    2 type  1   force =    17.74277958  -27.81504773   -0.14299874
     atom    3 type  1   force =    17.74086232   27.81504119    0.17479411
     atom    4 type  1   force =   -17.72086988  -27.76608913   -0.14259120
     atom    5 type  1   force =   -17.71880899   27.76570821    0.17583458
     atom    6 type  2   force =     0.08916505  -12.52085720   14.45829211
     atom    7 type  2   force =     0.09176874   12.52289661  -14.43065241
     atom    8 type  3   force =    21.42986130   -0.00547438    0.01531527
     atom    9 type  3   force =   -19.41649013   -0.00270361    0.01603273
     atom   10 type  3   force =    12.60078459  -33.33780521   21.73075316
     atom   11 type  3   force =    12.43739091  -33.97466272  -21.58092512
     atom   12 type  3   force =    12.44260860   33.97651320   21.56778130
     atom   13 type  3   force =    12.59458107   33.34143830  -21.73897526
     atom   14 type  3   force =   -12.59712088  -33.33349487   21.75641472
     atom   15 type  3   force =   -12.43325717  -33.96790640  -21.60639375
     atom   16 type  3   force =   -12.43871343   33.97156714   21.59260326
     atom   17 type  3   force =   -12.59027744   33.33472613  -21.76451395
     atom   18 type  4   force =     0.08323844   11.42170049   13.63506997
     atom   19 type  4   force =    12.06548068   -0.34250394   20.96689965
     atom   20 type  4   force =    12.07192022    0.34886741  -20.97611222
     atom   21 type  4   force =   -12.05060725   -0.34247092   21.05965840
     atom   22 type  4   force =   -12.05480729    0.34788075  -21.06942243
     atom   23 type  5   force =    -2.10981154   -0.00126795    0.00439549
     The core correction contribution to forces
     atom    1 type  1   force =     0.00046490   -0.03132117    0.00725700
     atom    2 type  1   force =     0.01561920   -9.62395179    0.00171294
     atom    3 type  1   force =     0.01568340    9.62388039   -0.00158568
     atom    4 type  1   force =    -0.01549232   -9.62391600    0.00164800
     atom    5 type  1   force =    -0.01548025    9.62386242   -0.00141650
     atom    6 type  2   force =     0.00007822   -0.01414275   -0.00203515
     atom    7 type  2   force =     0.00000353    0.01389015    0.00265091
     atom    8 type  3   force =    -0.03649872    0.00040924   -0.00030302
     atom    9 type  3   force =     0.01542799    0.00010292    0.00006295
     atom   10 type  3   force =     0.00676270   -5.12658517    0.00415189
     atom   11 type  3   force =     0.00451294   -5.12837988   -0.00395947
     atom   12 type  3   force =     0.00512066    5.12819200    0.00377453
     atom   13 type  3   force =     0.00712702    5.12626413   -0.00446361
     atom   14 type  3   force =    -0.00664118   -5.12661485    0.00416322
     atom   15 type  3   force =    -0.00446875   -5.12836822   -0.00399933
     atom   16 type  3   force =    -0.00506216    5.12814643    0.00375847
     atom   17 type  3   force =    -0.00701156    5.12632480   -0.00445642
     atom   18 type  4   force =     0.00010946    0.01006507   -0.00069844
     atom   19 type  4   force =    -0.00968291    0.00059696   -0.00846548
     atom   20 type  4   force =    -0.00931380    0.00005812    0.00827312
     atom   21 type  4   force =     0.00953953    0.00057549   -0.00841771
     atom   22 type  4   force =     0.00931380    0.00002341    0.00835619
     atom   23 type  5   force =     0.00000000    0.00000000    0.00000000
     The Hubbard contrib.    to forces
     atom    1 type  1   force =     0.00000000    0.00000000    0.00000000
     atom    2 type  1   force =     0.00000000    0.00000000    0.00000000
     atom    3 type  1   force =     0.00000000    0.00000000    0.00000000
     atom    4 type  1   force =     0.00000000    0.00000000    0.00000000
     atom    5 type  1   force =     0.00000000    0.00000000    0.00000000
     atom    6 type  2   force =     0.00000000    0.00000000    0.00000000
     atom    7 type  2   force =     0.00000000    0.00000000    0.00000000
     atom    8 type  3   force =     0.00000000    0.00000000    0.00000000
     atom    9 type  3   force =     0.00000000    0.00000000    0.00000000
     atom   10 type  3   force =     0.00000000    0.00000000    0.00000000
     atom   11 type  3   force =     0.00000000    0.00000000    0.00000000
     atom   12 type  3   force =     0.00000000    0.00000000    0.00000000
     atom   13 type  3   force =     0.00000000    0.00000000    0.00000000
     atom   14 type  3   force =     0.00000000    0.00000000    0.00000000
     atom   15 type  3   force =     0.00000000    0.00000000    0.00000000
     atom   16 type  3   force =     0.00000000    0.00000000    0.00000000
     atom   17 type  3   force =     0.00000000    0.00000000    0.00000000
     atom   18 type  4   force =     0.00000000    0.00000000    0.00000000
     atom   19 type  4   force =     0.00000000    0.00000000    0.00000000
     atom   20 type  4   force =     0.00000000    0.00000000    0.00000000
     atom   21 type  4   force =     0.00000000    0.00000000    0.00000000
     atom   22 type  4   force =     0.00000000    0.00000000    0.00000000
     atom   23 type  5   force =     0.00000000    0.00000000    0.00000000
     The SCF correction term to forces
     atom    1 type  1   force =    -0.00000000    0.00000000   -0.00000000
     atom    2 type  1   force =     0.00000000   -0.00000000   -0.00000000
     atom    3 type  1   force =     0.00000000   -0.00000000   -0.00000000
     atom    4 type  1   force =    -0.00000000   -0.00000000   -0.00000000
     atom    5 type  1   force =    -0.00000000   -0.00000000   -0.00000000
     atom    6 type  2   force =     0.00000000   -0.00000000   -0.00000000
     atom    7 type  2   force =    -0.00000000   -0.00000000   -0.00000000
     atom    8 type  3   force =     0.00000000    0.00000000   -0.00000000
     atom    9 type  3   force =    -0.00000000    0.00000000   -0.00000000
     atom   10 type  3   force =    -0.00000000   -0.00000000    0.00000000
     atom   11 type  3   force =     0.00000000    0.00000000    0.00000000
     atom   12 type  3   force =    -0.00000000    0.00000000    0.00000000
     atom   13 type  3   force =     0.00000000   -0.00000000    0.00000000
     atom   14 type  3   force =     0.00000000   -0.00000000    0.00000000
     atom   15 type  3   force =    -0.00000000   -0.00000000    0.00000000
     atom   16 type  3   force =     0.00000000    0.00000000    0.00000000
     atom   17 type  3   force =    -0.00000000   -0.00000000    0.00000000
     atom   18 type  4   force =     0.00000000    0.00000000   -0.00000000
     atom   19 type  4   force =    -0.00000000   -0.00000000    0.00000000
     atom   20 type  4   force =     0.00000000    0.00000000    0.00000000
     atom   21 type  4   force =     0.00000000   -0.00000000    0.00000000
     atom   22 type  4   force =    -0.00000000    0.00000000    0.00000000
     atom   23 type  5   force =     0.00074618   -0.00001742   -0.00115488

     Total force =     0.354862     Total SCF correction =     0.001375

     Entering Dynamics:    iteration =    10
                           time      =   0.0051 pico-seconds

ATOMIC_POSITIONS (angstrom)
Hf            1.8699999570        1.8699999570        7.0100002690    0   0   0
Hf            0.2000000000        0.2000000000        5.3399999140    0   0   0
Hf            0.2000000000        6.8799998280        5.3399999140    0   0   0
Hf            3.5399999140        0.2000000000        5.3399999140    0   0   0
Hf            3.5399999140        6.8799998280        5.3399999140    0   0   0
Nb            1.8699999570        1.8699999570        3.6699999570    0   0   0
Nb            1.8699999570        5.2100002690        7.0100002690    0   0   0
Ta            0.2000000000        3.5399999140        5.3399999140    0   0   0
Ta            3.5399999140        3.5399999140        5.3399999140    0   0   0
Ta            0.2000000000        0.2000000000        2.0000000000    0   0   0
Ta            0.2000000000        0.2000000000        8.6799998280    0   0   0
Ta            0.2000000000        6.8799998280        2.0000000000    0   0   0
Ta            0.2000000000        6.8799998280        8.6799998280    0   0   0
Ta            3.5399999140        0.2000000000        2.0000000000    0   0   0
Ta            3.5399999140        0.2000000000        8.6799998280    0   0   0
Ta            3.5399999140        6.8799998280        2.0000000000    0   0   0
Ta            3.5399999140        6.8799998280        8.6799998280    0   0   0
Zr            1.8699999570        5.2100002690        3.6699999570    0   0   0
Zr            0.2000000000        3.5399999140        2.0000000000    0   0   0
Zr            0.2000000000        3.5399999140        8.6799998280    0   0   0
Zr            3.5399999140        3.5399999140        2.0000000000    0   0   0
Zr            3.5399999140        3.5399999140        8.6799998280    0   0   0
H             5.1394872533        3.5419284224        5.3379864302

     kinetic energy (Ekin) =           0.52771994 Ry
     temperature           =       55546.92548924 K
     Ekin + Etot (const)   =       -2630.57611204 Ry

     The maximum number of steps has been reached.

     End of molecular dynamics calculation

     diffusion coefficients :
     atom     1   D =       0.00000000 cm^2/s
     atom     2   D =       0.00000000 cm^2/s
     atom     3   D =       0.00000000 cm^2/s
     atom     4   D =       0.00000000 cm^2/s
     atom     5   D =       0.00000000 cm^2/s
     atom     6   D =       0.00000000 cm^2/s
     atom     7   D =       0.00000000 cm^2/s
     atom     8   D =       0.00000000 cm^2/s
     atom     9   D =       0.00000000 cm^2/s
     atom    10   D =       0.00000000 cm^2/s
     atom    11   D =       0.00000000 cm^2/s
     atom    12   D =       0.00000000 cm^2/s
     atom    13   D =       0.00000000 cm^2/s
     atom    14   D =       0.00000000 cm^2/s
     atom    15   D =       0.00000000 cm^2/s
     atom    16   D =       0.00000000 cm^2/s
     atom    17   D =       0.00000000 cm^2/s
     atom    18   D =       0.00000000 cm^2/s
     atom    19   D =       0.00000000 cm^2/s
     atom    20   D =       0.00000000 cm^2/s
     atom    21   D =       0.00000000 cm^2/s
     atom    22   D =       0.00000000 cm^2/s
     atom    23   D =       0.00003250 cm^2/s

     < D > =       0.00003250 cm^2/s

     Writing all to output data dir outdir/pwscf.save/

     General routines

     Parallel routines

   This run was terminated on:   2:44:48   5Jun2023

   JOB DONE.