     Program PWSCF v.7.2 starts on  6Jun2023 at 17:11:20

     Reading input from md_Hf5Nb2Ta10Zr5H_15steps_1000eV_offset.in
Warning: card &CELL ignored
Warning: card / ignored

     Current dimensions of program PWSCF are:
     Max number of different atomic species (ntypx) = 10
     Max number of k-points (npk) =  40000
     Max angular momentum in pseudopotentials (lmaxx) =  4

     File outdir/pwscf.md deleted, as requested

     gamma-point specific algorithms are used

     R & G space division:  proc/nbgrp/npool/nimage =      12
     Subspace diagonalization in iterative solution of the eigenvalue problem:
     one sub-group per band group will be used

     Using Slab Decomposition

     bravais-lattice index     =            0
     lattice parameter (alat)  =      15.7603  a.u.
     unit-cell volume          =    4958.3580 (a.u.)^3
     number of atoms/cell      =           23
     number of atomic types    =            5
     number of electrons       =       277.00
     number of Kohn-Sham states=          167
     kinetic-energy cutoff     =     120.0000  Ry
     charge density cutoff     =     480.0000  Ry
     scf convergence threshold =      1.0E-03
     mixing beta               =       0.7000
     number of iterations used =            8  TF        mixing
     energy convergence thresh.=      0.0E+00
     force convergence thresh. =      0.0E+00
     Exchange-correlation=  SLA  PW   PBX  PBC
                           (   1   4   3   4   0   0   0)
     nstep                     =           15

     celldm(1)=  15.760315  celldm(2)=   0.000000  celldm(3)=   0.000000
     celldm(4)=   0.000000  celldm(5)=   0.000000  celldm(6)=   0.000000

     crystal axes: (cart. coord. in units of alat)
               a(1) = (   1.000000   0.000000   0.000000 )
               a(2) = (   0.000000   1.040767   0.000000 )
               a(3) = (   0.000000   0.000000   1.216997 )

     reciprocal axes: (cart. coord. in units 2 pi/alat)
               b(1) = (  1.000000  0.000000  0.000000 )
               b(2) = (  0.000000  0.960830  0.000000 )
               b(3) = (  0.000000  0.000000  0.821695 )

     PseudoPot. # 1 for Hf read from file:
     q-e/pseudo/hf_pbe_v1.uspp.F.UPF
     MD5 check sum: 8ee9378dfe14276e333edf04c5e4aa26
     Pseudo is Ultrasoft + core correction, Zval = 12.0
     Generated by new atomic code, or converted to UPF format
     Using radial grid of  921 points,  8 beta functions with:
                l(1) =   0
                l(2) =   0
                l(3) =   0
                l(4) =   1
                l(5) =   1
                l(6) =   2
                l(7) =   2
                l(8) =   3
     Q(r) pseudized with  6 coefficients,  rinner =    1.200   1.200   1.200
                                                       1.200   1.200   1.200
                                                       1.200

     PseudoPot. # 2 for Nb read from file:
     q-e/pseudo/nb_pbe_v1.uspp.F.UPF
     MD5 check sum: 573aab8a2fa660278ed4a62cd769473f
     Pseudo is Ultrasoft + core correction, Zval = 13.0
     Generated by new atomic code, or converted to UPF format
     Using radial grid of  887 points,  6 beta functions with:
                l(1) =   0
                l(2) =   0
                l(3) =   1
                l(4) =   1
                l(5) =   2
                l(6) =   2
     Q(r) pseudized with  6 coefficients,  rinner =    1.000   1.000   1.000
                                                       1.000   1.000

     PseudoPot. # 3 for Ta read from file:
     q-e/pseudo/ta_pbe_v1.uspp.F.UPF
     MD5 check sum: f8bbe9446314a3b8ea5d9f3e3836c939
     Pseudo is Ultrasoft + core correction, Zval = 13.0
     Generated by new atomic code, or converted to UPF format
     Using radial grid of  921 points,  7 beta functions with:
                l(1) =   0
                l(2) =   0
                l(3) =   1
                l(4) =   1
                l(5) =   2
                l(6) =   2
                l(7) =   3
     Q(r) pseudized with  6 coefficients,  rinner =    1.300   1.300   1.300
                                                       1.300   1.300   1.300
                                                       1.300

     PseudoPot. # 4 for Zr read from file:
     q-e/pseudo/zr_pbe_v1.uspp.F.UPF
     MD5 check sum: 5db81b1e868ab7776c4564c113de050b
     Pseudo is Ultrasoft + core correction, Zval = 12.0
     Generated by new atomic code, or converted to UPF format
     Using radial grid of  887 points,  6 beta functions with:
                l(1) =   0
                l(2) =   0
                l(3) =   1
                l(4) =   1
                l(5) =   2
                l(6) =   2
     Q(r) pseudized with  6 coefficients,  rinner =    1.200   1.200   1.200
                                                       1.200   1.200

     PseudoPot. # 5 for H  read from file:
     q-e/pseudo/h_pbe_v1.4.uspp.F.UPF
     MD5 check sum: 761ae9a214b05c3daf00ab9f6b793d6f
     Pseudo is Ultrasoft, Zval =  1.0
     Generated by new atomic code, or converted to UPF format
     Using radial grid of  615 points,  2 beta functions with:
                l(1) =   0
                l(2) =   0
     Q(r) pseudized with  8 coefficients,  rinner =    0.700

     atomic species   valence    mass     pseudopotential
        Hf            12.00   178.49000     Hf( 1.00)
        Nb            13.00    92.90637     Nb( 1.00)
        Ta            13.00   180.94788     Ta( 1.00)
        Zr            12.00    91.22400     Zr( 1.00)
        H              1.00     2.01400     H ( 1.00)

     Starting magnetic structure
     atomic species   magnetization
        Hf           0.000
        Nb           0.000
        Ta           0.000
        Zr           0.000
        H            0.000

     No symmetry found

   Cartesian axes

     site n.     atom                  positions (alat units)
         1           Hf  tau(   1) = (   0.3201439   0.3389836   0.7918423  )
         2           Hf  tau(   2) = (   0.1502387   0.1542307   0.6065307  )
         3           Hf  tau(   3) = (   0.1505380   0.8860677   0.6100801  )
         4           Hf  tau(   4) = (   0.4900491   0.1542307   0.6065307  )
         5           Hf  tau(   5) = (   0.4897498   0.8860677   0.6100801  )
         6           Nb  tau(   6) = (   0.3201439   0.3353634   0.4215328  )
         7           Nb  tau(   7) = (   0.3201439   0.7046018   0.7955633  )
         8           Ta  tau(   8) = (   0.1450088   0.5204950   0.6080487  )
         9           Ta  tau(   9) = (   0.4952790   0.5204950   0.6080487  )
        10           Ta  tau(  10) = (   0.1567449   0.1575687   0.2468560  )
        11           Ta  tau(  11) = (   0.1562096   0.1568814   0.9705731  )
        12           Ta  tau(  12) = (   0.1563561   0.8843917   0.2453522  )
        13           Ta  tau(  13) = (   0.1567999   0.8831035   0.9695447  )
        14           Ta  tau(  14) = (   0.4835429   0.1575687   0.2468560  )
        15           Ta  tau(  15) = (   0.4840781   0.1568814   0.9705731  )
        16           Ta  tau(  16) = (   0.4839317   0.8843917   0.2453522  )
        17           Ta  tau(  17) = (   0.4834879   0.8831035   0.9695447  )
        18           Zr  tau(  18) = (   0.3201439   0.7033916   0.4229477  )
        19           Zr  tau(  19) = (   0.1491408   0.5182348   0.2398082  )
        20           Zr  tau(  20) = (   0.1487273   0.5220772   0.9771889  )
        21           Zr  tau(  21) = (   0.4911469   0.5182348   0.2398082  )
        22           Zr  tau(  22) = (   0.4915605   0.5220772   0.9771889  )
        23           H   tau(  23) = (   0.6751351   0.7002398   0.6081751  )

     number of k points=     1  Gaussian smearing, width (Ry)=  0.0220
                       cart. coord. in units 2pi/alat
        k(    1) = (   0.0000000   0.0000000   0.0000000), wk =   1.0000000

     Check: negative core charge=   -0.000002
     Generating pointlists ...
     new r_m :   0.1083 (alat units)  1.7065 (a.u.) for type    1
     new r_m :   0.1229 (alat units)  1.9374 (a.u.) for type    2
     new r_m :   0.1049 (alat units)  1.6531 (a.u.) for type    3
     new r_m :   0.1245 (alat units)  1.9625 (a.u.) for type    4
     new r_m :   0.1049 (alat units)  1.6531 (a.u.) for type    5

     Initial potential from superposition of free atoms

     starting charge     266.9726, renormalised to     277.0000

     negative rho (up, down):  9.207E-01 9.207E-01
     Starting wfcs are  287 randomized atomic wfcs

     Self-consistent Calculation

     iteration #  1     ecut=   120.00 Ry     beta= 0.70
     Davidson diagonalization with overlap
     ethr =  1.00E-02,  avg # of iterations =  3.0

     negative rho (up, down):  9.763E-01 9.761E-01

     total energy              =   -2932.31302483 Ry
     estimated scf accuracy    <     290.57810207 Ry

     total magnetization       =     0.00 Bohr mag/cell
     absolute magnetization    =     0.09 Bohr mag/cell

[...]

     Magnetic moment per site  (integrated on atomic sphere of radius R)
     atom   1 (R=0.108)  charge=  8.3183   -0.0002
     atom   2 (R=0.108)  charge=  8.1008   -0.0001
     atom   3 (R=0.108)  charge=  8.0991   -0.0000
     atom   4 (R=0.108)  charge=  8.0998   -0.0000
     atom   5 (R=0.108)  charge=  8.0960   -0.0001
     atom   6 (R=0.123)  charge= 10.3434   -0.0006
     atom   7 (R=0.123)  charge= 10.3457   -0.0001
     atom   8 (R=0.105)  charge=  8.6103   -0.0002
     atom   9 (R=0.105)  charge=  8.5952   -0.0003
     atom  10 (R=0.105)  charge=  8.5836   -0.0001
     atom  11 (R=0.105)  charge=  8.5797    0.0002
     atom  12 (R=0.105)  charge=  8.5862    0.0008
     atom  13 (R=0.105)  charge=  8.5824    0.0001
     atom  14 (R=0.105)  charge=  8.5833    0.0003
     atom  15 (R=0.105)  charge=  8.5797    0.0003
     atom  16 (R=0.105)  charge=  8.5884    0.0008
     atom  17 (R=0.105)  charge=  8.5827   -0.0000
     atom  18 (R=0.125)  charge=  9.4545   -0.0003
     atom  19 (R=0.125)  charge=  8.9981    0.0004
     atom  20 (R=0.125)  charge=  8.9956    0.0011
     atom  21 (R=0.125)  charge=  9.0007    0.0003
     atom  22 (R=0.125)  charge=  8.9979    0.0011
     atom  23 (R=0.105)  charge=  1.0922    0.0000

     End of self-consistent calculation

 ------ SPIN UP ------------

          k = 0.0000 0.0000 0.0000 ( 55051 PWs)   bands (ev):

   -59.4913 -59.4792 -59.4467 -59.4339 -59.4152 -59.4032 -59.3715 -59.3590
   -59.2610 -59.1643 -53.0632 -52.9865 -52.9266 -52.8350 -51.3635 -44.9322
   -44.9072 -40.3362 -40.3282 -40.2426 -40.2352 -38.4864 -26.4930 -26.4800
   -26.4094 -26.3913 -26.3091 -26.2993 -26.1835 -26.1752 -26.1204 -26.0320
   -26.0124 -25.9708 -25.9577 -25.9424 -25.9234 -25.8863 -25.8678 -25.8560
   -25.8153 -25.7905 -25.7444 -25.6980 -25.6707 -25.6625 -25.6544 -25.6455
   -25.5983 -25.5924 -25.5715 -25.5631 -22.8391 -22.6171 -22.3243 -22.2174
   -21.9808 -21.8520 -21.8074 -21.7138 -21.5993 -21.5104 -21.4768 -21.2454
   -21.1722 -21.1141 -21.0629 -21.0104 -20.9424 -20.8922 -20.4293 -20.3613
   -20.2990 -18.8930 -18.6217 -18.5502 -18.5336 -18.3107 -18.3010 -18.2931
[...]
     8.5046   8.5530   8.5745   8.6030   8.6851   8.8074   8.8183   8.8860
     8.9105   9.1310   9.1891   9.3183   9.3552   9.3856   9.5602   9.5876
     9.6236   9.6388   9.6554   9.7049   9.8431   9.8462   9.9777  10.0076
    10.1209  10.2003  10.2627  10.4055  10.4171  10.4333  10.4580

     the Fermi energy is     8.5764 ev

!    total energy              =   -2942.93758285 Ry
     estimated scf accuracy    <       0.00062478 Ry
     smearing contrib. (-TS)   =      -0.09988765 Ry
     internal energy E=F+TS    =   -2942.83769520 Ry

     total magnetization       =     0.00 Bohr mag/cell
     absolute magnetization    =     0.00 Bohr mag/cell

     convergence has been achieved in   5 iterations

     negative rho (up, down):  9.082E-01 9.082E-01

     Forces acting on atoms (cartesian axes, Ry/au):

     atom    1 type  1   force =    -0.00174401   -0.02849493    0.00770341
     atom    2 type  1   force =    -0.12453952   -0.01577839   -0.01466585
     atom    3 type  1   force =    -0.12862986    0.21612896    0.00413124
     atom    4 type  1   force =     0.12138962   -0.01285169   -0.00994532
     atom    5 type  1   force =     0.11741600    0.01026536   -0.00319746
     atom    6 type  2   force =    -0.00783995   -0.02104219    0.01566606
     atom    7 type  2   force =     0.01424248    0.01138862    0.01477291
     atom    8 type  3   force =    -0.12200052   -0.22182022   -0.00738886
     atom    9 type  3   force =     0.11418604    0.00219249   -0.00465710
     atom   10 type  3   force =    -0.02252107   -0.03394994   -0.05620532
     atom   11 type  3   force =    -0.02205668   -0.03467076    0.05756579
     atom   12 type  3   force =    -0.01543262    0.04361053   -0.05671306
     atom   13 type  3   force =    -0.01582109    0.03530389    0.06541947
     atom   14 type  3   force =     0.02717926   -0.03211362   -0.05790375
     atom   15 type  3   force =     0.02532623   -0.03318405    0.05873891
     atom   16 type  3   force =     0.01514005    0.03748212   -0.05491015
     atom   17 type  3   force =     0.01617138    0.02767951    0.06445004
     atom   18 type  4   force =     0.01486378    0.02224624   -0.03061563
     atom   19 type  4   force =    -0.12985693   -0.00700691   -0.11747676
     atom   20 type  4   force =    -0.13184478    0.00226865    0.12173189
     atom   21 type  4   force =     0.13069739   -0.00430510   -0.11531342
     atom   22 type  4   force =     0.13166060    0.00755010    0.11967952
     atom   23 type  5   force =    -0.00598580    0.02910134   -0.00086656
     The non-local contrib.  to forces
     atom    1 type  1   force =     0.00301375   -0.01188626    0.03279147
     atom    2 type  1   force =    -0.24297598   -0.21892936    0.00854022
     atom    3 type  1   force =    -0.22044456    0.14899309   -0.02268000
     atom    4 type  1   force =     0.24517554   -0.16467539    0.00998260
     atom    5 type  1   force =     0.24555399    0.15591300   -0.02904245
     atom    6 type  2   force =    -0.00096649   -0.05349169   -0.05956090
     atom    7 type  2   force =     0.00541385    0.05963363    0.06751486
     atom    8 type  3   force =    -0.21062702    0.07374130   -0.00403785
     atom    9 type  3   force =     0.26652541    0.00666745   -0.00717493
     atom   10 type  3   force =    -0.22574060    0.00140746   -0.20437308
     atom   11 type  3   force =    -0.23447622    0.01069089    0.19650373
     atom   12 type  3   force =    -0.20989491   -0.01960296   -0.18043077
     atom   13 type  3   force =    -0.21710899   -0.00730297    0.20993316
     atom   14 type  3   force =     0.22053804    0.00929971   -0.21168610
     atom   15 type  3   force =     0.23217498    0.01368268    0.20637167
     atom   16 type  3   force =     0.20228711   -0.02810860   -0.18701965
     atom   17 type  3   force =     0.21410485   -0.01094952    0.21738948
     atom   18 type  4   force =     0.00555246    0.05122071   -0.07092772
     atom   19 type  4   force =     0.06753018    0.00872448    0.06938112
     atom   20 type  4   force =     0.06496134   -0.01091321   -0.06150982
     atom   21 type  4   force =    -0.06300189    0.00752814    0.07463970
     atom   22 type  4   force =    -0.06128411   -0.00780837   -0.06865862
     atom   23 type  5   force =     0.01503586   -0.00967877   -0.00283473
     The ionic contribution  to forces
     atom    1 type  1   force =     0.15871442   -4.81708468   14.45164218
     atom    2 type  1   force =   -34.51506316   -6.04862269    0.77838415
     atom    3 type  1   force =   -34.47433807    8.85387515   -0.69164447
     atom    4 type  1   force =    34.61725269   -6.09506437    0.77912432
     atom    5 type  1   force =    34.89479293    6.37948367   -0.71140680
     atom    6 type  2   force =     0.16677071   -3.78031619  -14.38182451
     atom    7 type  2   force =     1.02730136    3.56180405   15.36442558
     atom    8 type  3   force =   -46.33455835   -3.05922158   -0.07779482
     atom    9 type  3   force =    46.68728537   -0.20505289   -0.06900035
     atom   10 type  3   force =   -31.09752093   -2.05681896  -23.68628738
     atom   11 type  3   force =   -30.16616241   -0.80358242   22.68846935
     atom   12 type  3   force =   -30.28057406    1.01497966  -23.04663012
     atom   13 type  3   force =   -31.06663120    2.40474516   23.98320979
     atom   14 type  3   force =    31.15247467   -2.05938601  -23.62703612
     atom   15 type  3   force =    30.22113433   -0.80682770   22.62925298
     atom   16 type  3   force =    30.41291168    0.87328307  -22.77802267
     atom   17 type  3   force =    31.20185817    2.26139613   23.70986833
     atom   18 type  4   force =     0.95582909    4.32576123  -15.18070955
     atom   19 type  4   force =   -31.10013113    0.75207994  -26.35483765
     atom   20 type  4   force =   -31.06953747   -1.16259897   26.33829585
     atom   21 type  4   force =    31.20894392    0.87126110  -26.11550877
     atom   22 type  4   force =    31.17914798   -1.04457407   26.09482816
     atom   23 type  5   force =    -3.77990054    0.64048136   -0.09679747
     The local contribution  to forces
     atom    1 type  1   force =    -0.16299192    4.80610333  -14.49306792
     atom    2 type  1   force =    34.65146547    6.26008582   -0.82709101
     atom    3 type  1   force =    34.57384425   -8.77939783    0.69290224
     atom    4 type  1   force =   -34.75429863    6.25084221   -0.82478924
     atom    5 type  1   force =   -35.03319106   -6.53136188    0.71364743
     atom    6 type  2   force =    -0.17348456    3.80564919   14.43182241
     atom    7 type  2   force =    -1.01491053   -3.61833343  -15.43047156
     atom    8 type  3   force =    46.45207120    2.75709054    0.05353375
     atom    9 type  3   force =   -46.87282124    0.19995461    0.05108893
     atom   10 type  3   force =    31.32431772    2.00364510   23.84854960
     atom   11 type  3   force =    30.40842497    0.75824769  -22.83477029
     atom   12 type  3   force =    30.49712068   -0.93367650   23.18213723
     atom   13 type  3   force =    31.29304673   -2.36168157  -24.13146156
     atom   14 type  3   force =   -31.36805169    2.00138281   23.79510007
     atom   15 type  3   force =   -30.45513811    0.75978766  -22.78438706
     atom   16 type  3   force =   -30.62198761   -0.79000158   22.92452165
     atom   17 type  3   force =   -31.42334061   -2.22251195  -23.86977653
     atom   18 type  4   force =    -0.94458602   -4.34814637   15.19383432
     atom   19 type  4   force =    30.90992890   -0.76815746   26.17487626
     atom   20 type  4   force =    30.89071491    1.17426911  -26.15796677
     atom   21 type  4   force =   -31.02096434   -0.88395845   25.93461950
     atom   22 type  4   force =   -31.00253571    1.05897916  -25.91156847
     atom   23 type  5   force =     3.75905272   -0.60216678    0.09508434
     The core correction contribution to forces
     atom    1 type  1   force =     0.00011837    0.00184002    0.00118178
     atom    2 type  1   force =    -0.01443242   -0.00610864    0.00046190
     atom    3 type  1   force =    -0.00591455   -0.00465390   -0.00041825
     atom    4 type  1   force =     0.01124930   -0.00162337    0.00074512
     atom    5 type  1   force =     0.01050282    0.00436580   -0.00130687
     atom    6 type  2   force =     0.00013293    0.00258218    0.00236162
     atom    7 type  2   force =    -0.00072056   -0.00295360   -0.00314402
     atom    8 type  3   force =    -0.02251964    0.00075780   -0.00038172
     atom    9 type  3   force =     0.03142396   -0.00062860   -0.00022645
     atom   10 type  3   force =    -0.02324365    0.00817407   -0.01570479
     atom   11 type  3   force =    -0.02517620    0.00940378    0.01611874
     atom   12 type  3   force =    -0.02255941   -0.00896388   -0.01452992
     atom   13 type  3   force =    -0.02227907   -0.00860403    0.01533991
     atom   14 type  3   force =     0.02241608    0.00882193   -0.01498521
     atom   15 type  3   force =     0.02414480    0.00920770    0.01593001
     atom   16 type  3   force =     0.02194534   -0.00901053   -0.01593534
     atom   17 type  3   force =     0.02222296   -0.00809346    0.01685695
     atom   18 type  4   force =    -0.00044826   -0.00273792    0.00351123
     atom   19 type  4   force =    -0.01012897    0.00009070   -0.00937446
     atom   20 type  4   force =    -0.01003076    0.00016528    0.00904225
     atom   21 type  4   force =     0.00977493    0.00011629   -0.00971905
     atom   22 type  4   force =     0.00973816    0.00000567    0.00951659
     atom   23 type  5   force =     0.00000000    0.00000000    0.00000000
     The Hubbard contrib.    to forces
     atom    1 type  1   force =     0.00000000    0.00000000    0.00000000
     atom    2 type  1   force =     0.00000000    0.00000000    0.00000000
     atom    3 type  1   force =     0.00000000    0.00000000    0.00000000
     atom    4 type  1   force =     0.00000000    0.00000000    0.00000000
     atom    5 type  1   force =     0.00000000    0.00000000    0.00000000
     atom    6 type  2   force =     0.00000000    0.00000000    0.00000000
     atom    7 type  2   force =     0.00000000    0.00000000    0.00000000
     atom    8 type  3   force =     0.00000000    0.00000000    0.00000000
     atom    9 type  3   force =     0.00000000    0.00000000    0.00000000
     atom   10 type  3   force =     0.00000000    0.00000000    0.00000000
     atom   11 type  3   force =     0.00000000    0.00000000    0.00000000
     atom   12 type  3   force =     0.00000000    0.00000000    0.00000000
     atom   13 type  3   force =     0.00000000    0.00000000    0.00000000
     atom   14 type  3   force =     0.00000000    0.00000000    0.00000000
     atom   15 type  3   force =     0.00000000    0.00000000    0.00000000
     atom   16 type  3   force =     0.00000000    0.00000000    0.00000000
     atom   17 type  3   force =     0.00000000    0.00000000    0.00000000
     atom   18 type  4   force =     0.00000000    0.00000000    0.00000000
     atom   19 type  4   force =     0.00000000    0.00000000    0.00000000
     atom   20 type  4   force =     0.00000000    0.00000000    0.00000000
     atom   21 type  4   force =     0.00000000    0.00000000    0.00000000
     atom   22 type  4   force =     0.00000000    0.00000000    0.00000000
     atom   23 type  5   force =     0.00000000    0.00000000    0.00000000
     The SCF correction term to forces
     atom    1 type  1   force =    -0.00000000   -0.00000000    0.00000000
     atom    2 type  1   force =    -0.00000000   -0.00000000    0.00000000
     atom    3 type  1   force =    -0.00000000   -0.00000000    0.00000000
     atom    4 type  1   force =     0.00000000   -0.00000000    0.00000000
     atom    5 type  1   force =    -0.00000000    0.00000000    0.00000000
     atom    6 type  2   force =    -0.00000000    0.00000000    0.00000000
     atom    7 type  2   force =    -0.00000000    0.00000000    0.00000000
     atom    8 type  3   force =    -0.00000000    0.00000000    0.00000000
     atom    9 type  3   force =     0.00000000    0.00000000    0.00000000
     atom   10 type  3   force =    -0.00000000    0.00000000   -0.00000000
     atom   11 type  3   force =    -0.00000000   -0.00000000   -0.00000000
     atom   12 type  3   force =     0.00000000   -0.00000000    0.00000000
     atom   13 type  3   force =    -0.00000000    0.00000000   -0.00000000
     atom   14 type  3   force =    -0.00003600    0.00785927   -0.00119144
     atom   15 type  3   force =     0.00317207   -0.00894306   -0.01032375
     atom   16 type  3   force =     0.00014537   -0.00858891   -0.00034920
     atom   17 type  3   force =     0.00148785    0.00792963   -0.01178325
     atom   18 type  4   force =    -0.00132167   -0.00376008    0.02178103
     atom   19 type  4   force =     0.00310592    0.00034675    0.00058292
     atom   20 type  4   force =    -0.00779096    0.00143777   -0.00802468
     atom   21 type  4   force =    -0.00389340    0.00083915   -0.00123985
     atom   22 type  4   force =     0.00675610    0.00103904   -0.00633320
     atom   23 type  5   force =    -0.00001201    0.00055686    0.00178625

     Total force =     0.384337     Total SCF correction =     0.035679

     Entering Dynamics:    iteration =    15
                           time      =   0.0030 pico-seconds

ATOMIC_POSITIONS (angstrom)
Hf            2.6699999570        2.8271230292        6.6039642186    0   0   0
Hf            1.2529906802        1.2862841814        5.0584662261    0   0   0
Hf            1.2554868986        7.3898042948        5.0880677674    0   0   0
Hf            4.0870092338        1.2862841814        5.0584662261    0   0   0
Hf            4.0845130154        7.3898042948        5.0880677674    0   0   0
Nb            2.6699999570        2.7969306055        3.5155832167    0   0   0
Nb            2.6699999570        5.8763786763        6.6349979432    0   0   0
Ta            1.2093730560        4.3409278516        5.0711258323    0   0   0
Ta            4.1306268580        4.3409278516        5.0711258323    0   0   0
Ta            1.3072526841        1.3141225894        2.0587791101    0   0   0
Ta            1.3027883142        1.3083911360        8.0945792024    0   0   0
Ta            1.3040096221        7.3758261241        2.0462371798    0   0   0
Ta            1.3077107984        7.3650829484        8.0860022208    0   0   0
Ta            4.0328888622        1.3139216813        2.0583915447
Ta            4.0373524384        1.3081590630        8.0949468124
Ta            4.0361020612        7.3760824783        2.0458767378
Ta            4.0324046147        7.3653044191        8.0863869768
Zr            2.6698337446        5.8665527554        3.5265410288
Zr            1.2421592697        4.3220040514        1.9985214167
Zr            1.2386548387        4.3541861840        8.1512497540
Zr            4.0978094312        4.3219904333        1.9985078543
Zr            4.1013258296        4.3541596287        8.1512608985
H             0.9300766382        5.8464956134        5.0776463523

     kinetic energy (Ekin) =          18.19600552 Ry
     temperature           =      191528.13650986 K
     Ekin + Etot (const)   =       -2924.74157732 Ry

     The maximum number of steps has been reached.

     End of molecular dynamics calculation

     diffusion coefficients :
     atom     1   D =       0.00000000 cm^2/s
     atom     2   D =       0.00000000 cm^2/s
     atom     3   D =       0.00000000 cm^2/s
     atom     4   D =       0.00000000 cm^2/s
     atom     5   D =       0.00000000 cm^2/s
     atom     6   D =       0.00000000 cm^2/s
     atom     7   D =       0.00000000 cm^2/s
     atom     8   D =       0.00000000 cm^2/s
     atom     9   D =       0.00000000 cm^2/s
     atom    10   D =       0.00000000 cm^2/s
     atom    11   D =       0.00000000 cm^2/s
     atom    12   D =       0.00000000 cm^2/s
     atom    13   D =       0.00000000 cm^2/s
     atom    14   D =       0.00000000 cm^2/s
     atom    15   D =       0.00000000 cm^2/s
     atom    16   D =       0.00000000 cm^2/s
     atom    17   D =       0.00000000 cm^2/s
     atom    18   D =       0.00000000 cm^2/s
     atom    19   D =       0.00000003 cm^2/s
     atom    20   D =       0.00000003 cm^2/s
     atom    21   D =       0.00000003 cm^2/s
     atom    22   D =       0.00000003 cm^2/s
     atom    23   D =       0.12082642 cm^2/s

     < D > =       0.01208265 cm^2/s

     Writing all to output data dir outdir/pwscf.save/

     General routines

     Parallel routines

   This run was terminated on:  18:26:33   6Jun2023

   JOB DONE.