     Program PWSCF v.7.2 starts on  8Jun2023 at  3:43:27

     Reading input from md_Hf5Nb2Ta10Zr5H_10steps_1000eV_incident45_polar45.in
Warning: card &CELL ignored
Warning: card / ignored

     Current dimensions of program PWSCF are:
     Max number of different atomic species (ntypx) = 10
     Max number of k-points (npk) =  40000
     Max angular momentum in pseudopotentials (lmaxx) =  4

     gamma-point specific algorithms are used

     R & G space division:  proc/nbgrp/npool/nimage =      12
     Subspace diagonalization in iterative solution of the eigenvalue problem:
     one sub-group per band group will be used

     Using Slab Decomposition

     bravais-lattice index     =            0
     lattice parameter (alat)  =      13.8706  a.u.
     unit-cell volume          =    4363.8306 (a.u.)^3
     number of atoms/cell      =           23
     number of atomic types    =            5
     number of electrons       =       277.00
     number of Kohn-Sham states=          167
     kinetic-energy cutoff     =     120.0000  Ry
     charge density cutoff     =     480.0000  Ry
     scf convergence threshold =      1.0E-03
     mixing beta               =       0.7000
     number of iterations used =            8  TF        mixing
     energy convergence thresh.=      0.0E+00
     force convergence thresh. =      0.0E+00
     Exchange-correlation=  SLA  PW   PBX  PBC
                           (   1   4   3   4   0   0   0)
     nstep                     =           10

     celldm(1)=  13.870589  celldm(2)=   0.000000  celldm(3)=   0.000000
     celldm(4)=   0.000000  celldm(5)=   0.000000  celldm(6)=   0.000000

     crystal axes: (cart. coord. in units of alat)
               a(1) = (   1.000000   0.000000   0.000000 )
               a(2) = (   0.000000   1.182561   0.000000 )
               a(3) = (   0.000000   0.000000   1.382801 )

     reciprocal axes: (cart. coord. in units 2 pi/alat)
               b(1) = (  1.000000  0.000000  0.000000 )
               b(2) = (  0.000000  0.845622  0.000000 )
               b(3) = (  0.000000  0.000000  0.723170 )

     PseudoPot. # 1 for Hf read from file:
     q-e/pseudo/hf_pbe_v1.uspp.F.UPF
     MD5 check sum: 8ee9378dfe14276e333edf04c5e4aa26
     Pseudo is Ultrasoft + core correction, Zval = 12.0
     Generated by new atomic code, or converted to UPF format
     Using radial grid of  921 points,  8 beta functions with:
                l(1) =   0
                l(2) =   0
                l(3) =   0
                l(4) =   1
                l(5) =   1
                l(6) =   2
                l(7) =   2
                l(8) =   3
     Q(r) pseudized with  6 coefficients,  rinner =    1.200   1.200   1.200
                                                       1.200   1.200   1.200
                                                       1.200

     PseudoPot. # 2 for Nb read from file:
     q-e/pseudo/nb_pbe_v1.uspp.F.UPF
     MD5 check sum: 573aab8a2fa660278ed4a62cd769473f
     Pseudo is Ultrasoft + core correction, Zval = 13.0
     Generated by new atomic code, or converted to UPF format
     Using radial grid of  887 points,  6 beta functions with:
                l(1) =   0
                l(2) =   0
                l(3) =   1
                l(4) =   1
                l(5) =   2
                l(6) =   2
     Q(r) pseudized with  6 coefficients,  rinner =    1.000   1.000   1.000
                                                       1.000   1.000

     PseudoPot. # 3 for Ta read from file:
     q-e/pseudo/ta_pbe_v1.uspp.F.UPF
     MD5 check sum: f8bbe9446314a3b8ea5d9f3e3836c939
     Pseudo is Ultrasoft + core correction, Zval = 13.0
     Generated by new atomic code, or converted to UPF format
     Using radial grid of  921 points,  7 beta functions with:
                l(1) =   0
                l(2) =   0
                l(3) =   1
                l(4) =   1
                l(5) =   2
                l(6) =   2
                l(7) =   3
     Q(r) pseudized with  6 coefficients,  rinner =    1.300   1.300   1.300
                                                       1.300   1.300   1.300
                                                       1.300

     PseudoPot. # 4 for Zr read from file:
     q-e/pseudo/zr_pbe_v1.uspp.F.UPF
     MD5 check sum: 5db81b1e868ab7776c4564c113de050b
     Pseudo is Ultrasoft + core correction, Zval = 12.0
     Generated by new atomic code, or converted to UPF format
     Using radial grid of  887 points,  6 beta functions with:
                l(1) =   0
                l(2) =   0
                l(3) =   1
                l(4) =   1
                l(5) =   2
                l(6) =   2
     Q(r) pseudized with  6 coefficients,  rinner =    1.200   1.200   1.200
                                                       1.200   1.200

     PseudoPot. # 5 for H  read from file:
     q-e/pseudo/h_pbe_v1.4.uspp.F.UPF
     MD5 check sum: 761ae9a214b05c3daf00ab9f6b793d6f
     Pseudo is Ultrasoft, Zval =  1.0
     Generated by new atomic code, or converted to UPF format
     Using radial grid of  615 points,  2 beta functions with:
                l(1) =   0
                l(2) =   0
     Q(r) pseudized with  8 coefficients,  rinner =    0.700

     atomic species   valence    mass     pseudopotential
        Hf            12.00   178.49000     Hf( 1.00)
        Nb            13.00    92.90637     Nb( 1.00)
        Ta            13.00   180.94788     Ta( 1.00)
        Zr            12.00    91.22400     Zr( 1.00)
        H              1.00     2.01400     H ( 1.00)

     Starting magnetic structure
     atomic species   magnetization
        Hf           0.000
        Nb           0.000
        Ta           0.000
        Zr           0.000
        H            0.000

     No symmetry found

   Cartesian axes

     site n.     atom                  positions (alat units)
         1           Hf  tau(   1) = (   0.3637602   0.3851666   0.8997227  )
         2           Hf  tau(   2) = (   0.1707072   0.1752431   0.6891644  )
         3           Hf  tau(   3) = (   0.1710473   1.0067854   0.6931973  )
         4           Hf  tau(   4) = (   0.5568133   0.1752431   0.6891644  )
         5           Hf  tau(   5) = (   0.5564732   1.0067854   0.6931973  )
         6           Nb  tau(   6) = (   0.3637602   0.3810532   0.4789623  )
         7           Nb  tau(   7) = (   0.3637602   0.8005966   0.9039507  )
         8           Ta  tau(   8) = (   0.1647647   0.5914071   0.6908891  )
         9           Ta  tau(   9) = (   0.5627557   0.5914071   0.6908891  )
        10           Ta  tau(  10) = (   0.1780998   0.1790358   0.2804876  )
        11           Ta  tau(  11) = (   0.1774916   0.1782549   1.1028038  )
        12           Ta  tau(  12) = (   0.1776580   1.0048810   0.2787789  )
        13           Ta  tau(  13) = (   0.1781622   1.0034173   1.1016352  )
        14           Ta  tau(  14) = (   0.5494206   0.1790358   0.2804876  )
        15           Ta  tau(  15) = (   0.5500289   0.1782549   1.1028038  )
        16           Ta  tau(  16) = (   0.5498625   1.0048810   0.2787789  )
        17           Ta  tau(  17) = (   0.5493582   1.0034173   1.1016352  )
        18           Zr  tau(  18) = (   0.3637602   0.7992215   0.4805700  )
        19           Zr  tau(  19) = (   0.1694598   0.5888390   0.2724796  )
        20           Zr  tau(  20) = (   0.1689898   0.5932048   1.1103210  )
        21           Zr  tau(  21) = (   0.5580607   0.5888390   0.2724796  )
        22           Zr  tau(  22) = (   0.5585306   0.5932048   1.1103210  )
        23           H   tau(  23) = (   0.6590918   0.6594006   0.7591526  )

     number of k points=     1  Gaussian smearing, width (Ry)=  0.0220
                       cart. coord. in units 2pi/alat
        k(    1) = (   0.0000000   0.0000000   0.0000000), wk =   1.0000000

     Check: negative core charge=   -0.000002
     Generating pointlists ...
     new r_m :   0.1421 (alat units)  1.9717 (a.u.) for type    1
     new r_m :   0.1397 (alat units)  1.9374 (a.u.) for type    2
     new r_m :   0.0562 (alat units)  0.7796 (a.u.) for type    3
     new r_m :   0.1415 (alat units)  1.9625 (a.u.) for type    4
     new r_m :   0.0562 (alat units)  0.7796 (a.u.) for type    5

     Initial potential from superposition of free atoms

     starting charge     266.9726, renormalised to     277.0000

     negative rho (up, down):  9.202E-01 9.202E-01
     Starting wfcs are  287 randomized atomic wfcs

     Self-consistent Calculation

     iteration #  1     ecut=   120.00 Ry     beta= 0.70
     Davidson diagonalization with overlap
     ethr =  1.00E-02,  avg # of iterations =  3.0

     negative rho (up, down):  9.520E-01 9.495E-01

     total energy              =   -2933.25876349 Ry
     estimated scf accuracy    <     320.29260461 Ry

     total magnetization       =    -0.01 Bohr mag/cell
     absolute magnetization    =     0.09 Bohr mag/cell

[...]

     Magnetic moment per site  (integrated on atomic sphere of radius R)
     atom   1 (R=0.142)  charge=  9.4650  magn=  0.0008
     atom   2 (R=0.142)  charge=  9.0542  magn=  0.0005
     atom   3 (R=0.142)  charge=  9.0554  magn=  0.0007
     atom   4 (R=0.142)  charge=  9.0547  magn=  0.0008
     atom   5 (R=0.142)  charge=  9.0565  magn=  0.0006
     atom   6 (R=0.140)  charge= 10.3392  magn=  0.0007
     atom   7 (R=0.140)  charge= 10.3502  magn=  0.0007
     atom   8 (R=0.056)  charge=  1.3448  magn=  0.0000
     atom   9 (R=0.056)  charge=  1.3607  magn=  0.0000
     atom  10 (R=0.056)  charge=  1.3422  magn= -0.0000
     atom  11 (R=0.056)  charge=  1.3418  magn= -0.0000
     atom  12 (R=0.056)  charge=  1.3417  magn=  0.0001
     atom  13 (R=0.056)  charge=  1.3417  magn= -0.0000
     atom  14 (R=0.056)  charge=  1.3430  magn= -0.0000
     atom  15 (R=0.056)  charge=  1.3431  magn=  0.0001
     atom  16 (R=0.056)  charge=  1.3417  magn=  0.0001
     atom  17 (R=0.056)  charge=  1.3426  magn= -0.0000
     atom  18 (R=0.141)  charge=  9.4586  magn=  0.0005
     atom  19 (R=0.141)  charge=  8.9982  magn=  0.0092
     atom  20 (R=0.141)  charge=  8.9944  magn=  0.0012
     atom  21 (R=0.141)  charge=  8.9964  magn=  0.0118
     atom  22 (R=0.141)  charge=  8.9955  magn=  0.0019
     atom  23 (R=0.056)  charge=  0.7657  magn=  0.0000

     End of self-consistent calculation

 ------ SPIN UP ------------

          k = 0.0000 0.0000 0.0000 ( 48454 PWs)   bands (ev):

   -57.8554 -57.8535 -57.8088 -57.8045 -57.7806 -57.7722 -57.7319 -57.7292
   -57.5791 -57.4135 -51.4241 -51.3767 -51.2988 -51.2520 -49.6775 -43.3073
   -43.2319 -38.6263 -38.6127 -38.5244 -38.5232 -36.8178 -25.9545 -24.8609
   -24.8571 -24.7727 -24.7705 -24.6671 -24.6650 -24.5497 -24.5437 -24.3938
   -24.3849 -24.3245 -24.3178 -24.3096 -24.2870 -24.2747 -24.2256 -24.2170
   -24.1997 -24.1102 -24.0361 -24.0345 -24.0312 -24.0217 -23.9693 -23.9583
   -23.9429 -23.9367 -23.6862 -23.6005 -21.2127 -21.0045 -20.6854 -20.6022
   -20.3402 -20.2042 -20.1820 -20.0778 -19.9703 -19.8882 -19.8822 -19.6556
   -19.5628 -19.4543 -19.4018 -19.3614 -19.3018 -19.2507 -18.7622 -18.6807
[...]
     8.8503   8.9965   9.0722   9.1592   9.1815   9.2310   9.2773   9.3575
     9.4181   9.4403   9.6944   9.7397   9.8469   9.9183   9.9668  10.0620
    10.1583  10.2886  10.3189  10.3805  10.4220  10.5083  10.5470  10.5985
    10.7603  10.8371  10.8758  10.9514  11.0257  11.0933  11.2111  11.2555
    11.2723  11.3489  11.3614  11.5885  11.7176  11.7505  11.7943  11.9152
    11.9760  12.0568  12.1334  12.1821  12.1858  12.2105  12.2273

     the Fermi energy is    10.2991 ev

!    total energy              =   -2942.46770302 Ry
     estimated scf accuracy    <       0.00037986 Ry
     smearing contrib. (-TS)   =      -0.09182511 Ry
     internal energy E=F+TS    =   -2942.37587791 Ry

     total magnetization       =     0.00 Bohr mag/cell
     absolute magnetization    =     0.00 Bohr mag/cell

     convergence has been achieved in   4 iterations

     negative rho (up, down):  9.081E-01 9.081E-01

     Forces acting on atoms (cartesian axes, Ry/au):

     atom    1 type  1   force =     0.00982239   -0.02544744    0.02763871
     atom    2 type  1   force =    -0.13464239   -0.01538241   -0.00326187
     atom    3 type  1   force =    -0.12999757    0.02070797   -0.00609683
     atom    4 type  1   force =     0.13313379   -0.01507870   -0.00421004
     atom    5 type  1   force =     0.12820614    0.01229350   -0.00196576
     atom    6 type  2   force =    -0.00214868   -0.01586555   -0.00452607
     atom    7 type  2   force =     1.04373744    1.11782931    1.16539283
     atom    8 type  3   force =    -0.18606934   -0.04326000   -0.06066074
     atom    9 type  3   force =     0.14134367   -0.00675611   -0.00988434
     atom   10 type  3   force =    -0.03320344   -0.02008699   -0.05161502
     atom   11 type  3   force =    -0.03849458   -0.02588873    0.05057716
     atom   12 type  3   force =    -0.03239077    0.02859231   -0.05135495
     atom   13 type  3   force =    -0.02573929    0.02690805    0.05617184
     atom   14 type  3   force =     0.03445752   -0.02384333   -0.05262893
     atom   15 type  3   force =     0.03368585   -0.04202525    0.05015363
     atom   16 type  3   force =     0.03202213    0.03015382   -0.05435099
     atom   17 type  3   force =     0.02467191    0.03107206    0.04658578
     atom   18 type  4   force =    -0.00003863    0.02821286   -0.01772390
     atom   19 type  4   force =    -0.14846626   -0.00513142   -0.11625883
     atom   20 type  4   force =    -0.15043744   -0.00561405    0.12867311
     atom   21 type  4   force =     0.14978862   -0.00664499   -0.11699161
     atom   22 type  4   force =     0.14551029    0.00327337    0.11762316
     atom   23 type  5   force =    -0.99475135   -1.04801827   -1.09128635
     The non-local contrib.  to forces
     atom    1 type  1   force =     0.00252091    0.00546939    0.04238543
     atom    2 type  1   force =    -0.24835246   -0.17375173    0.01915487
     atom    3 type  1   force =    -0.24244857    0.15770331   -0.03179192
     atom    4 type  1   force =     0.24819940   -0.16756457    0.01649633
     atom    5 type  1   force =     0.24618542    0.15809783   -0.02148714
     atom    6 type  2   force =    -0.00588913   -0.06725110   -0.04455024
     atom    7 type  2   force =     0.02238717    0.08790007    0.04829794
     atom    8 type  3   force =    -0.23539234    0.03055729    0.02532115
     atom    9 type  3   force =     0.26464144   -0.00121187    0.00378357
     atom   10 type  3   force =    -0.23439300    0.01150475   -0.21861888
     atom   11 type  3   force =    -0.24243454    0.01924774    0.20836075
     atom   12 type  3   force =    -0.22313707   -0.02810175   -0.18917819
     atom   13 type  3   force =    -0.22543928   -0.01459532    0.21095310
     atom   14 type  3   force =     0.23623409    0.00991457   -0.22163739
     atom   15 type  3   force =     0.22418403    0.03144474    0.19892058
     atom   16 type  3   force =     0.21974023   -0.03135080   -0.19473843
     atom   17 type  3   force =     0.18206793   -0.06139539    0.16763369
     atom   18 type  4   force =     0.00486050    0.07465149   -0.04164840
     atom   19 type  4   force =     0.07603518    0.00713774    0.06100587
     atom   20 type  4   force =     0.06403782   -0.01557292   -0.05318563
     atom   21 type  4   force =    -0.07452212    0.00099293    0.05778426
     atom   22 type  4   force =    -0.07256118    0.00200258   -0.05557538
     atom   23 type  5   force =     0.13553472    0.15295324    0.15648980
     The ionic contribution  to forces
     atom    1 type  1   force =     0.18108044   -5.39607405   15.01195931
     atom    2 type  1   force =   -27.88482615   -6.26599705    0.67228052
     atom    3 type  1   force =   -28.14703847    6.99554215   -1.13661779
     atom    4 type  1   force =    27.90517837   -6.26914302    0.70200206
     atom    5 type  1   force =    28.16090648    6.54883799   -0.93719967
     atom    6 type  2   force =     0.00687551   -3.87030030  -15.12573803
     atom    7 type  2   force =     3.97519764    7.74091819   19.10392014
     atom    8 type  3   force =   -40.09094837   -1.45215032   -1.63117857
     atom    9 type  3   force =    39.48315260   -0.28585515   -0.49218411
     atom   10 type  3   force =   -24.85971992   -2.11324516  -24.59187353
     atom   11 type  3   force =   -23.95808267   -0.88410193   23.67084059
     atom   12 type  3   force =   -24.07136399    0.87457951  -23.70494882
     atom   13 type  3   force =   -24.99243274    2.62617530   24.97767416
     atom   14 type  3   force =    24.86697496   -2.11850417  -24.58853619
     atom   15 type  3   force =    23.98166370   -0.86632002   23.64308400
     atom   16 type  3   force =    24.08895903    0.85568869  -23.67090185
     atom   17 type  3   force =    25.04104830    2.45077400   24.79986368
     atom   18 type  4   force =     0.16941571    4.57935420  -15.47660358
     atom   19 type  4   force =   -25.13912535    0.90842557  -27.12620052
     atom   20 type  4   force =   -25.37083467   -1.35186531   27.76863828
     atom   21 type  4   force =    25.15194341    0.93106636  -27.10652269
     atom   22 type  4   force =    25.38027221   -1.16213668   27.33066099
     atom   23 type  5   force =    -3.87829603   -2.47566881   -2.09241837
     The local contribution  to forces
     atom    1 type  1   force =    -0.17805100    5.35969025  -15.03730674
     atom    2 type  1   force =    28.00069021    6.43659245   -0.69348480
     atom    3 type  1   force =    28.26306818   -7.13319755    1.16219496
     atom    4 type  1   force =   -28.02300068    6.42788029   -0.72286647
     atom    5 type  1   force =   -28.28521984   -6.69772189    0.96131862
     atom    6 type  2   force =    -0.00819703    3.92312067   15.17897468
     atom    7 type  2   force =    -2.94443007   -6.70613312  -17.99116601
     atom    8 type  3   force =    40.16032887    1.36982684    1.53987029
     atom    9 type  3   force =   -39.63344006    0.27603643    0.47718111
     atom   10 type  3   force =    25.07758652    2.08632736   24.79673162
     atom   11 type  3   force =    24.19121640    0.84206782  -23.86560427
     atom   12 type  3   force =    24.28018002   -0.81102014   23.88341803
     atom   13 type  3   force =    25.22293526   -2.57500612  -25.17258639
     atom   14 type  3   force =   -25.08552728    2.08833741   24.79553663
     atom   15 type  3   force =   -24.19864717    0.78772427  -23.82720337
     atom   16 type  3   force =   -24.29359771   -0.78758119   23.85061350
     atom   17 type  3   force =   -25.22377725   -2.34901274  -24.95838216
     atom   18 type  4   force =    -0.17680096   -4.63151384   15.51482921
     atom   19 type  4   force =    24.91512611   -0.92812155   26.98039573
     atom   20 type  4   force =    25.16802313    1.35080242  -27.61308708
     atom   21 type  4   force =   -24.92917591   -0.94552738   26.95875543
     atom   22 type  4   force =   -25.17506588    1.15951505  -27.18402338
     atom   23 type  5   force =     2.74673824    1.27372094    0.84354096
     The core correction contribution to forces
     atom    1 type  1   force =     0.00026362    0.00565914    0.00286402
     atom    2 type  1   force =    -0.01195686   -0.00337792   -0.00048361
     atom    3 type  1   force =    -0.00962466    0.00083364   -0.00159974
     atom    4 type  1   force =     0.01131534   -0.00217548    0.00088340
     atom    5 type  1   force =     0.01178759    0.00313350   -0.00243858
     atom    6 type  2   force =     0.00016665    0.00326664    0.00148230
     atom    7 type  2   force =    -0.00230630   -0.00591471   -0.00299244
     atom    8 type  3   force =    -0.02851459    0.00039382    0.00159425
     atom    9 type  3   force =     0.03200364    0.00088731    0.00155231
     atom   10 type  3   force =    -0.02548373    0.00663272   -0.01603136
     atom   11 type  3   force =    -0.02699006    0.00677319    0.01668504
     atom   12 type  3   force =    -0.02517330   -0.00747752   -0.01579184
     atom   13 type  3   force =    -0.02325177   -0.00655070    0.01440267
     atom   14 type  3   force =     0.02465741    0.00612753   -0.01600254
     atom   15 type  3   force =     0.02411502    0.00857904    0.01545733
     atom   16 type  3   force =     0.02431425   -0.00694304   -0.01530994
     atom   17 type  3   force =     0.02323576   -0.00694662    0.01319320
     atom   18 type  4   force =    -0.00036158   -0.00404496    0.00195745
     atom   19 type  4   force =    -0.01042631    0.00016606   -0.00871520
     atom   20 type  4   force =    -0.00976348    0.00028040    0.00836778
     atom   21 type  4   force =     0.01030223    0.00051422   -0.00855899
     atom   22 type  4   force =     0.01015893   -0.00041324    0.00846040
     atom   23 type  5   force =     0.00000000    0.00000000    0.00000000
     The Hubbard contrib.    to forces
     atom    1 type  1   force =     0.00000000    0.00000000    0.00000000
     atom    2 type  1   force =     0.00000000    0.00000000    0.00000000
     atom    3 type  1   force =     0.00000000    0.00000000    0.00000000
     atom    4 type  1   force =     0.00000000    0.00000000    0.00000000
     atom    5 type  1   force =     0.00000000    0.00000000    0.00000000
     atom    6 type  2   force =     0.00000000    0.00000000    0.00000000
     atom    7 type  2   force =     0.00000000    0.00000000    0.00000000
     atom    8 type  3   force =     0.00000000    0.00000000    0.00000000
     atom    9 type  3   force =     0.00000000    0.00000000    0.00000000
     atom   10 type  3   force =     0.00000000    0.00000000    0.00000000
     atom   11 type  3   force =     0.00000000    0.00000000    0.00000000
     atom   12 type  3   force =     0.00000000    0.00000000    0.00000000
     atom   13 type  3   force =     0.00000000    0.00000000    0.00000000
     atom   14 type  3   force =     0.00000000    0.00000000    0.00000000
     atom   15 type  3   force =     0.00000000    0.00000000    0.00000000
     atom   16 type  3   force =     0.00000000    0.00000000    0.00000000
     atom   17 type  3   force =     0.00000000    0.00000000    0.00000000
     atom   18 type  4   force =     0.00000000    0.00000000    0.00000000
     atom   19 type  4   force =     0.00000000    0.00000000    0.00000000
     atom   20 type  4   force =     0.00000000    0.00000000    0.00000000
     atom   21 type  4   force =     0.00000000    0.00000000    0.00000000
     atom   22 type  4   force =     0.00000000    0.00000000    0.00000000
     atom   23 type  5   force =     0.00000000    0.00000000    0.00000000
     The SCF correction term to forces
     atom    1 type  1   force =     0.00000000   -0.00000000    0.00000000
     atom    2 type  1   force =     0.00968665   -0.00874457   -0.00070485
     atom    3 type  1   force =     0.00592974   -0.00006999    0.00174166
     atom    4 type  1   force =    -0.00867487   -0.00397234   -0.00070135
     atom    5 type  1   force =    -0.00556973    0.00004966   -0.00213500
     atom    6 type  2   force =     0.00477911   -0.00459787   -0.01467078
     atom    7 type  2   force =    -0.00722722    0.00116247    0.00735720
     atom    8 type  3   force =     0.00834088    0.00821595    0.00375614
     atom    9 type  3   force =    -0.00513016    0.00349076   -0.00019323
     atom   10 type  3   force =     0.00869047   -0.01120308   -0.02179888
     atom   11 type  3   force =    -0.00231993   -0.00977195    0.02031905
     atom   12 type  3   force =     0.00698736    0.00071580   -0.02483012
     atom   13 type  3   force =    -0.00766699   -0.00301152    0.02575230
     atom   14 type  3   force =    -0.00799788   -0.00961509   -0.02196545
     atom   15 type  3   force =     0.00225406   -0.00334970    0.01991909
     atom   16 type  3   force =    -0.00750989    0.00044375   -0.02399028
     atom   17 type  3   force =     0.00198095   -0.00224360    0.02430136
     atom   18 type  4   force =     0.00273148    0.00986955   -0.01623458
     atom   19 type  4   force =     0.00980790    0.00736435   -0.02272072
     atom   20 type  4   force =    -0.00201646    0.01084494    0.01796376
     atom   21 type  4   force =    -0.00887520    0.00641247   -0.01842562
     atom   22 type  4   force =     0.00258998    0.00440926    0.01812453
     atom   23 type  5   force =     0.00115551    0.00107995    0.00112526

     Total force =     2.700060     Total SCF correction =     0.089780

     Entering Dynamics:    iteration =    10
                           time      =   0.0020 pico-seconds

ATOMIC_POSITIONS (angstrom)
Hf            2.6699999570        2.8271230292        6.6039642186    0   0   0
Hf            1.2526111205        1.2862365548        5.0584584034
Hf            1.2551137016        7.3898433785        5.0880716848
Hf            4.0873933673        1.2862242786        5.0584696343
Hf            4.0848916583        7.3898507390        5.0880559028
Nb            2.6700549979        2.7968971704        3.5156108367
Nb            2.6699614321        5.8777952940        6.6364254593
Ta            1.2089800759        4.3409246998        5.0711098020
Ta            4.1296679309        4.3346236325        5.0647221194
Ta            1.3071564590        1.3140456615        2.0586133153
Ta            1.3026799446        1.3082877283        8.0947375240
Ta            1.3039153995        7.3759157051        2.0460742682
Ta            1.3076209059        7.3651762841        8.0861742999
Ta            4.0328330823        1.3140665815        2.0586234227
Ta            4.0373078139        1.3083114090        8.0947383151
Ta            4.0360729632        7.3759033366        2.0460810826
Ta            4.0323608536        7.3651500426        8.0861607062
Zr            2.6700349630        5.8664258701        3.5273022049
Zr            1.2429972450        4.3220474286        1.9993217717
Zr            1.2395321704        4.3541512469        8.1504489291
Zr            4.0969966934        4.3220620920        1.9993006375
Zr            4.1004710269        4.3541258901        8.1504709305
H             1.8148187271        5.3431042122        6.0797739270

     kinetic energy (Ekin) =          18.53968523 Ry
     temperature           =       88702.56914540 K
     Ekin + Etot (const)   =       -2923.92801779 Ry

     The maximum number of steps has been reached.

     End of molecular dynamics calculation

     diffusion coefficients :
     atom     1   D =       0.00000000 cm^2/s
     atom     2   D =       0.00000000 cm^2/s
     atom     3   D =       0.00000000 cm^2/s
     atom     4   D =       0.00000000 cm^2/s
     atom     5   D =       0.00000000 cm^2/s
     atom     6   D =       0.00000000 cm^2/s
     atom     7   D =       0.00000003 cm^2/s
     atom     8   D =       0.00000000 cm^2/s
     atom     9   D =       0.00000067 cm^2/s
     atom    10   D =       0.00000000 cm^2/s
     atom    11   D =       0.00000000 cm^2/s
     atom    12   D =       0.00000000 cm^2/s
     atom    13   D =       0.00000000 cm^2/s
     atom    14   D =       0.00000000 cm^2/s
     atom    15   D =       0.00000000 cm^2/s
     atom    16   D =       0.00000000 cm^2/s
     atom    17   D =       0.00000000 cm^2/s
     atom    18   D =       0.00000000 cm^2/s
     atom    19   D =       0.00000001 cm^2/s
     atom    20   D =       0.00000001 cm^2/s
     atom    21   D =       0.00000001 cm^2/s
     atom    22   D =       0.00000001 cm^2/s
     atom    23   D =       0.07914560 cm^2/s

     < D > =       0.00359756 cm^2/s

     Writing all to output data dir outdir/pwscf.save/

     General routines

     Parallel routines

   This run was terminated on:   4:34:36   8Jun2023

   JOB DONE.