     Program PWSCF v.7.2 starts on  8Jun2023 at 14:26: 3

     Reading input from md_Hf5Nb2Ta10Zr5H_10steps_1000eV_incident45_polar45.in
Warning: card &CELL ignored
Warning: card / ignored

     Current dimensions of program PWSCF are:
     Max number of different atomic species (ntypx) = 10
     Max number of k-points (npk) =  40000
     Max angular momentum in pseudopotentials (lmaxx) =  4

     File outdir/pwscf.md deleted, as requested

     gamma-point specific algorithms are used

     R & G space division:  proc/nbgrp/npool/nimage =      12
     Subspace diagonalization in iterative solution of the eigenvalue problem:
     one sub-group per band group will be used

     Using Slab Decomposition

     bravais-lattice index     =            0
     lattice parameter (alat)  =      17.6500  a.u.
     unit-cell volume          =    5552.8853 (a.u.)^3
     number of atoms/cell      =           23
     number of atomic types    =            5
     number of electrons       =       277.00
     number of Kohn-Sham states=          167
     kinetic-energy cutoff     =     120.0000  Ry
     charge density cutoff     =     480.0000  Ry
     scf convergence threshold =      1.0E-03
     mixing beta               =       0.7000
     number of iterations used =            8  TF        mixing
     energy convergence thresh.=      0.0E+00
     force convergence thresh. =      0.0E+00
     Exchange-correlation=  SLA  PW   PBX  PBC
                           (   1   4   3   4   0   0   0)
     nstep                     =           10

     celldm(1)=  17.650041  celldm(2)=   0.000000  celldm(3)=   0.000000
     celldm(4)=   0.000000  celldm(5)=   0.000000  celldm(6)=   0.000000

     crystal axes: (cart. coord. in units of alat)
               a(1) = (   1.000000   0.000000   0.000000 )
               a(2) = (   0.000000   0.929336   0.000000 )
               a(3) = (   0.000000   0.000000   1.086698 )

     reciprocal axes: (cart. coord. in units 2 pi/alat)
               b(1) = (  1.000000  0.000000  0.000000 )
               b(2) = (  0.000000  1.076037  0.000000 )
               b(3) = (  0.000000  0.000000  0.920219 )

     PseudoPot. # 1 for Hf read from file:
     q-e/pseudo/hf_pbe_v1.uspp.F.UPF
     MD5 check sum: 8ee9378dfe14276e333edf04c5e4aa26
     Pseudo is Ultrasoft + core correction, Zval = 12.0
     Generated by new atomic code, or converted to UPF format
     Using radial grid of  921 points,  8 beta functions with:
                l(1) =   0
                l(2) =   0
                l(3) =   0
                l(4) =   1
                l(5) =   1
                l(6) =   2
                l(7) =   2
                l(8) =   3
     Q(r) pseudized with  6 coefficients,  rinner =    1.200   1.200   1.200
                                                       1.200   1.200   1.200
                                                       1.200

     PseudoPot. # 2 for Nb read from file:
     q-e/pseudo/nb_pbe_v1.uspp.F.UPF
     MD5 check sum: 573aab8a2fa660278ed4a62cd769473f
     Pseudo is Ultrasoft + core correction, Zval = 13.0
     Generated by new atomic code, or converted to UPF format
     Using radial grid of  887 points,  6 beta functions with:
                l(1) =   0
                l(2) =   0
                l(3) =   1
                l(4) =   1
                l(5) =   2
                l(6) =   2
     Q(r) pseudized with  6 coefficients,  rinner =    1.000   1.000   1.000
                                                       1.000   1.000

     PseudoPot. # 3 for Ta read from file:
     q-e/pseudo/ta_pbe_v1.uspp.F.UPF
     MD5 check sum: f8bbe9446314a3b8ea5d9f3e3836c939
     Pseudo is Ultrasoft + core correction, Zval = 13.0
     Generated by new atomic code, or converted to UPF format
     Using radial grid of  921 points,  7 beta functions with:
                l(1) =   0
                l(2) =   0
                l(3) =   1
                l(4) =   1
                l(5) =   2
                l(6) =   2
                l(7) =   3
     Q(r) pseudized with  6 coefficients,  rinner =    1.300   1.300   1.300
                                                       1.300   1.300   1.300
                                                       1.300

     PseudoPot. # 4 for Zr read from file:
     q-e/pseudo/zr_pbe_v1.uspp.F.UPF
     MD5 check sum: 5db81b1e868ab7776c4564c113de050b
     Pseudo is Ultrasoft + core correction, Zval = 12.0
     Generated by new atomic code, or converted to UPF format
     Using radial grid of  887 points,  6 beta functions with:
                l(1) =   0
                l(2) =   0
                l(3) =   1
                l(4) =   1
                l(5) =   2
                l(6) =   2
     Q(r) pseudized with  6 coefficients,  rinner =    1.200   1.200   1.200
                                                       1.200   1.200

     PseudoPot. # 5 for H  read from file:
     q-e/pseudo/h_pbe_v1.4.uspp.F.UPF
     MD5 check sum: 761ae9a214b05c3daf00ab9f6b793d6f
     Pseudo is Ultrasoft, Zval =  1.0
     Generated by new atomic code, or converted to UPF format
     Using radial grid of  615 points,  2 beta functions with:
                l(1) =   0
                l(2) =   0
     Q(r) pseudized with  8 coefficients,  rinner =    0.700

     atomic species   valence    mass     pseudopotential
        Hf            12.00   178.49000     Hf( 1.00)
        Nb            13.00    92.90637     Nb( 1.00)
        Ta            13.00   180.94788     Ta( 1.00)
        Zr            12.00    91.22400     Zr( 1.00)
        H              1.00     2.01400     H ( 1.00)

     Starting magnetic structure
     atomic species   magnetization
        Hf           0.000
        Nb           0.000
        Ta           0.000
        Zr           0.000
        H            0.000

     No symmetry found

   Cartesian axes

     site n.     atom                  positions (alat units)
         1           Hf  tau(   1) = (   0.2858672   0.3026898   0.7070626  )
         2           Hf  tau(   2) = (   0.1341532   0.1377178   0.5415917  )
         3           Hf  tau(   3) = (   0.1344204   0.7911996   0.5447610  )
         4           Hf  tau(   4) = (   0.4375813   0.1377178   0.5415917  )
         5           Hf  tau(   5) = (   0.4373140   0.7911996   0.5447610  )
         6           Nb  tau(   6) = (   0.2858672   0.2994572   0.3764008  )
         7           Nb  tau(   7) = (   0.2858672   0.6291626   0.7103852  )
         8           Ta  tau(   8) = (   0.1294832   0.4647675   0.5429471  )
         9           Ta  tau(   9) = (   0.4422513   0.4647675   0.5429471  )
        10           Ta  tau(  10) = (   0.1399628   0.1406984   0.2204260  )
        11           Ta  tau(  11) = (   0.1394848   0.1400847   0.8666573  )
        12           Ta  tau(  12) = (   0.1396156   0.7897030   0.2190832  )
        13           Ta  tau(  13) = (   0.1400119   0.7885528   0.8657390  )
        14           Ta  tau(  14) = (   0.4317717   0.1406984   0.2204260  )
        15           Ta  tau(  15) = (   0.4322496   0.1400847   0.8666573  )
        16           Ta  tau(  16) = (   0.4321189   0.7897030   0.2190832  )
        17           Ta  tau(  17) = (   0.4317226   0.7885528   0.8657390  )
        18           Zr  tau(  18) = (   0.2858672   0.6280820   0.3776642  )
        19           Zr  tau(  19) = (   0.1331729   0.4627493   0.2141328  )
        20           Zr  tau(  20) = (   0.1328036   0.4661802   0.8725649  )
        21           Zr  tau(  21) = (   0.4385616   0.4627493   0.2141328  )
        22           Zr  tau(  22) = (   0.4389309   0.4661802   0.8725649  )
        23           H   tau(  23) = (   0.5936660   0.5717345   0.6501263  )

     number of k points=     1  Gaussian smearing, width (Ry)=  0.0220
                       cart. coord. in units 2pi/alat
        k(    1) = (   0.0000000   0.0000000   0.0000000), wk =   1.0000000

     Check: negative core charge=   -0.000002
     Generating pointlists ...
     new r_m :   0.1117 (alat units)  1.9717 (a.u.) for type    1
     new r_m :   0.1098 (alat units)  1.9374 (a.u.) for type    2
     new r_m :   0.0883 (alat units)  1.5591 (a.u.) for type    3
     new r_m :   0.1112 (alat units)  1.9625 (a.u.) for type    4
     new r_m :   0.0883 (alat units)  1.5591 (a.u.) for type    5

     Initial potential from superposition of free atoms

     starting charge     266.9726, renormalised to     277.0000

     negative rho (up, down):  9.217E-01 9.217E-01
     Starting wfcs are  287 randomized atomic wfcs

     Self-consistent Calculation

     iteration #  1     ecut=   120.00 Ry     beta= 0.70
     Davidson diagonalization with overlap
     ethr =  1.00E-02,  avg # of iterations =  2.0

     negative rho (up, down):  9.964E-01 9.956E-01

     total energy              =   -2930.58400776 Ry
     estimated scf accuracy    <     276.71146824 Ry

     total magnetization       =     0.00 Bohr mag/cell
     absolute magnetization    =     0.07 Bohr mag/cell

[...]

     Magnetic moment per site  (integrated on atomic sphere of radius R)
     atom   1 (R=0.112)  charge=  9.4624   -0.0002
     atom   2 (R=0.112)  charge=  9.0593    0.0002
     atom   3 (R=0.112)  charge=  9.0580    0.0001
     atom   4 (R=0.112)  charge=  9.0592   -0.0000
     atom   5 (R=0.112)  charge=  9.0579    0.0002
     atom   6 (R=0.110)  charge= 10.3494    0.0004
     atom   7 (R=0.110)  charge= 10.3541   -0.0000
     atom   8 (R=0.088)  charge=  8.1263   -0.0001
     atom   9 (R=0.088)  charge=  8.1247    0.0002
     atom  10 (R=0.088)  charge=  8.1053   -0.0008
     atom  11 (R=0.088)  charge=  8.1039    0.0000
     atom  12 (R=0.088)  charge=  8.1051   -0.0005
     atom  13 (R=0.088)  charge=  8.1041   -0.0002
     atom  14 (R=0.088)  charge=  8.1056   -0.0005
     atom  15 (R=0.088)  charge=  8.1018    0.0004
     atom  16 (R=0.088)  charge=  8.1053   -0.0008
     atom  17 (R=0.088)  charge=  8.1112    0.0006
     atom  18 (R=0.111)  charge=  9.4530    0.0002
     atom  19 (R=0.111)  charge=  8.9980   -0.0020
     atom  20 (R=0.111)  charge=  8.9959    0.0012
     atom  21 (R=0.111)  charge=  8.9961   -0.0019
     atom  22 (R=0.111)  charge=  8.9949    0.0017
     atom  23 (R=0.088)  charge=  0.9866   -0.0000

     End of self-consistent calculation

 ------ SPIN UP ------------

          k = 0.0000 0.0000 0.0000 ( 61588 PWs)   bands (ev):

   -60.7833 -60.7779 -60.7382 -60.7349 -60.6994 -60.6980 -60.6545 -60.6514
   -60.5320 -60.4366 -54.3846 -54.3388 -54.2540 -54.2088 -52.6952 -46.2979
   -46.2583 -41.6675 -41.6234 -41.5685 -41.5228 -39.7988 -27.7864 -27.7745
   -27.6965 -27.6902 -27.6001 -27.5864 -27.4665 -27.4563 -27.3931 -27.3358
   -27.3132 -27.2707 -27.2662 -27.2426 -27.2264 -27.1738 -27.1627 -27.1539
   -27.1001 -27.0882 -27.0346 -26.9677 -26.9629 -26.9519 -26.9500 -26.9322
   -26.8917 -26.8772 -26.8543 -26.8509 -24.1703 -23.9593 -23.6597 -23.5680
   -23.3140 -23.1928 -23.1681 -23.0648 -22.9316 -22.8634 -22.8375 -22.6168
   -22.5230 -22.4628 -22.4044 -22.3792 -22.2782 -22.2431 -21.7587 -21.6926
   -21.6246 -20.1917 -19.9670 -19.8241 -19.8217 -19.6581 -19.6183 -19.6033
[...]
     6.0153   6.1099   6.1537   6.2190   6.2550   6.3509   6.3760   6.4154
     6.5467   6.6253   6.6629   6.7575   6.8988   6.9423   7.0029   7.0970
     7.1061   7.1309   7.1512   7.2716   7.4218   7.5024   7.5102   7.5970
     7.6515   7.8242   7.8934   8.0566   8.0673   8.0966   8.1312   8.2088
     8.2386   8.2718   8.3032   8.3748   8.4205   8.5348   8.6541   8.7337
     8.8254   8.9144   8.9848   9.0751   9.1448   9.2409   9.2702

     the Fermi energy is     7.2411 ev

!    total energy              =   -2940.90101032 Ry
     estimated scf accuracy    <       0.00071164 Ry
     smearing contrib. (-TS)   =      -0.09569117 Ry
     internal energy E=F+TS    =   -2940.80531916 Ry

     total magnetization       =    -0.00 Bohr mag/cell
     absolute magnetization    =     0.00 Bohr mag/cell

     convergence has been achieved in   4 iterations

     negative rho (up, down):  9.090E-01 9.090E-01

     Forces acting on atoms (cartesian axes, Ry/au):

     atom    1 type  1   force =    -0.00276414   -0.02564936    0.01742470
     atom    2 type  1   force =    -0.11598895   -0.01767010   -0.00794889
     atom    3 type  1   force =    -0.10633241    0.00489638    0.00034211
     atom    4 type  1   force =     0.11731368   -0.01635188   -0.00862874
     atom    5 type  1   force =     0.10663673    0.00512837   -0.00208502
     atom    6 type  2   force =     0.00067607   -0.01666083    0.00976143
     atom    7 type  2   force =    -0.55921053    3.53827321    3.68489798
     atom    8 type  3   force =    -0.11391950   -0.00456926   -0.01981198
     atom    9 type  3   force =     0.11615356   -0.00523357   -0.02360623
     atom   10 type  3   force =    -0.02010287   -0.02926116   -0.05617525
     atom   11 type  3   force =    -0.01878305   -0.04251061    0.05462912
     atom   12 type  3   force =    -0.01247820    0.03383870   -0.05862979
     atom   13 type  3   force =     0.00724556    0.02329583    0.05838694
     atom   14 type  3   force =     0.02019356   -0.02816607   -0.05531819
     atom   15 type  3   force =     0.02035401   -0.03667763    0.05497347
     atom   16 type  3   force =     0.01204472    0.03405740   -0.05547445
     atom   17 type  3   force =    -0.00112703    0.02657986    0.06324065
     atom   18 type  4   force =     0.00066200    0.03014439   -0.00512594
     atom   19 type  4   force =    -0.12626596   -0.00502395   -0.11671548
     atom   20 type  4   force =    -0.12209321    0.01093529    0.11366027
     atom   21 type  4   force =     0.12599577   -0.00553564   -0.11529769
     atom   22 type  4   force =     0.12309661    0.00806354    0.11403693
     atom   23 type  5   force =     0.54869357   -3.48190289   -3.64653594
     The non-local contrib.  to forces
     atom    1 type  1   force =    -0.00178309   -0.00243163    0.02954417
     atom    2 type  1   force =    -0.24200978   -0.16592981    0.01388390
     atom    3 type  1   force =    -0.23801616    0.15402037   -0.01809732
     atom    4 type  1   force =     0.24173901   -0.16915791    0.01440450
     atom    5 type  1   force =     0.23686625    0.15430340   -0.01990670
     atom    6 type  2   force =     0.00178159   -0.04931069   -0.06815781
     atom    7 type  2   force =    -0.02003447    0.22355588    0.20998811
     atom    8 type  3   force =    -0.24796556    0.00114442   -0.00683697
     atom    9 type  3   force =     0.24005000    0.00764087   -0.00268352
     atom   10 type  3   force =    -0.21055223   -0.00004956   -0.20959964
     atom   11 type  3   force =    -0.21296862    0.01145903    0.19064623
     atom   12 type  3   force =    -0.20246631   -0.02166394   -0.18111593
     atom   13 type  3   force =    -0.16856476   -0.01026659    0.19806737
     atom   14 type  3   force =     0.20981422    0.00102802   -0.20918108
     atom   15 type  3   force =     0.21766609    0.01126700    0.19248866
     atom   16 type  3   force =     0.20249520   -0.02126095   -0.17831133
     atom   17 type  3   force =     0.18481173   -0.00594793    0.20166697
     atom   18 type  4   force =    -0.00023610    0.05165066   -0.04980288
     atom   19 type  4   force =     0.06459421    0.01235701    0.07776034
     atom   20 type  4   force =     0.05238561   -0.00153803   -0.07115247
     atom   21 type  4   force =    -0.06508622    0.01400732    0.07951896
     atom   22 type  4   force =    -0.05205902   -0.00630868   -0.07085626
     atom   23 type  5   force =    -0.08743568    0.65463978    0.68831625
     The ionic contribution  to forces
     atom    1 type  1   force =    -0.02898611   -5.40687235   14.15624583
     atom    2 type  1   force =   -39.77871655   -6.17061105    0.68137925
     atom    3 type  1   force =   -40.08087521    6.68495987   -1.03478108
     atom    4 type  1   force =    39.77132123   -6.17651326    0.67859539
     atom    5 type  1   force =    40.07732611    6.74382544   -1.05965041
     atom    6 type  2   force =    -0.01396063   -3.78983429  -14.19068527
     atom    7 type  2   force =    -1.25827105   11.61027639   22.34517751
     atom    8 type  3   force =   -53.22802575   -0.67639245   -0.84043930
     atom    9 type  3   force =    53.31243047   -0.81548807   -0.98178996
     atom   10 type  3   force =   -36.08605051   -2.09376492  -23.09528997
     atom   11 type  3   force =   -35.21254891   -0.87760697   22.17387411
     atom   12 type  3   force =   -35.30040628    0.87100269  -22.21018839
     atom   13 type  3   force =   -36.29574415    2.53158205   23.40955265
     atom   14 type  3   force =    36.08203075   -2.09477910  -23.09773058
     atom   15 type  3   force =    35.20580501   -0.88067891   22.17870841
     atom   16 type  3   force =    35.29506120    0.87439670  -22.21583712
     atom   17 type  3   force =    36.28426343    2.55081955   23.42989375
     atom   18 type  4   force =    -0.02763934    4.50277472  -14.70292169
     atom   19 type  4   force =   -35.96127463    0.89678468  -25.61985316
     atom   20 type  4   force =   -36.29060768   -1.24072447   26.05430831
     atom   21 type  4   force =    35.95534306    0.89482132  -25.62913183
     atom   22 type  4   force =    36.28772542   -1.26356595   26.11135422
     atom   23 type  5   force =     1.29180012   -6.67441160   -6.54079066
     The local contribution  to forces
     atom    1 type  1   force =     0.03010128    5.37913624  -14.17341620
     atom    2 type  1   force =    39.92195055    6.30995576   -0.72137884
     atom    3 type  1   force =    40.22957433   -6.83349257    1.05176726
     atom    4 type  1   force =   -39.91491538    6.32455180   -0.71985992
     atom    5 type  1   force =   -40.23062346   -6.89574783    1.06788541
     atom    6 type  2   force =     0.01350385    3.81325486   14.25030615
     atom    7 type  2   force =     0.69611826   -8.23444138  -18.82226898
     atom    8 type  3   force =    53.39490523    0.67510033    0.80920518
     atom    9 type  3   force =   -53.46220344    0.80326941    0.94037281
     atom   10 type  3   force =    36.29876032    2.04659012   23.26160971
     atom   11 type  3   force =    35.43218541    0.78286974  -22.30947104
     atom   12 type  3   force =    35.51209255   -0.80461729   22.33599606
     atom   13 type  3   force =    36.49571846   -2.49571337  -23.54951031
     atom   14 type  3   force =   -36.29716356    2.05106513   23.26845103
     atom   15 type  3   force =   -35.43748630    0.81450117  -22.32232761
     atom   16 type  3   force =   -35.51445116   -0.80756198   22.34942955
     atom   17 type  3   force =   -36.51879890   -2.51525098  -23.57205220
     atom   18 type  4   force =     0.02731803   -4.51186525   14.73281603
     atom   19 type  4   force =    35.78010283   -0.90908667   25.42613832
     atom   20 type  4   force =    36.13008328    1.27867371  -25.85943877
     atom   21 type  4   force =   -35.77656082   -0.91216648   25.43987057
     atom   22 type  4   force =   -36.13364366    1.28836687  -25.92602997
     atom   23 type  5   force =    -0.65853107    2.53918543    2.20528124
     The core correction contribution to forces
     atom    1 type  1   force =    -0.00009580    0.00223055    0.00014798
     atom    2 type  1   force =    -0.01164736   -0.00217505    0.00045195
     atom    3 type  1   force =    -0.01215816    0.00347814   -0.00289278
     atom    4 type  1   force =     0.01227008   -0.00253104    0.00009562
     atom    5 type  1   force =     0.01228915    0.00269657   -0.00267975
     atom    6 type  2   force =    -0.00005788    0.00240643    0.00291612
     atom    7 type  2   force =     0.00403674   -0.03092471   -0.03057129
     atom    8 type  3   force =    -0.03135939    0.00072984    0.00079834
     atom    9 type  3   force =     0.03028630    0.00064532    0.00103039
     atom   10 type  3   force =    -0.02175652    0.00906696   -0.01660820
     atom   11 type  3   force =    -0.02227887    0.01020503    0.01631855
     atom   12 type  3   force =    -0.02184986   -0.00949921   -0.01590412
     atom   13 type  3   force =    -0.02010504   -0.00916313    0.01664668
     atom   14 type  3   force =     0.02189969    0.00910018   -0.01675018
     atom   15 type  3   force =     0.02314237    0.00939328    0.01678393
     atom   16 type  3   force =     0.02195403   -0.00963122   -0.01594940
     atom   17 type  3   force =     0.02037395   -0.01004474    0.01554069
     atom   18 type  4   force =     0.00002595   -0.00268903    0.00231837
     atom   19 type  4   force =    -0.00986930   -0.00008650   -0.00993553
     atom   20 type  4   force =    -0.00929161   -0.00001895    0.00961062
     atom   21 type  4   force =     0.00987656   -0.00021253   -0.01001539
     atom   22 type  4   force =     0.00925265    0.00016428    0.00955789
     atom   23 type  5   force =     0.00000000    0.00000000    0.00000000
     The Hubbard contrib.    to forces
     atom    1 type  1   force =     0.00000000    0.00000000    0.00000000
     atom    2 type  1   force =     0.00000000    0.00000000    0.00000000
     atom    3 type  1   force =     0.00000000    0.00000000    0.00000000
     atom    4 type  1   force =     0.00000000    0.00000000    0.00000000
     atom    5 type  1   force =     0.00000000    0.00000000    0.00000000
     atom    6 type  2   force =     0.00000000    0.00000000    0.00000000
     atom    7 type  2   force =     0.00000000    0.00000000    0.00000000
     atom    8 type  3   force =     0.00000000    0.00000000    0.00000000
     atom    9 type  3   force =     0.00000000    0.00000000    0.00000000
     atom   10 type  3   force =     0.00000000    0.00000000    0.00000000
     atom   11 type  3   force =     0.00000000    0.00000000    0.00000000
     atom   12 type  3   force =     0.00000000    0.00000000    0.00000000
     atom   13 type  3   force =     0.00000000    0.00000000    0.00000000
     atom   14 type  3   force =     0.00000000    0.00000000    0.00000000
     atom   15 type  3   force =     0.00000000    0.00000000    0.00000000
     atom   16 type  3   force =     0.00000000    0.00000000    0.00000000
     atom   17 type  3   force =     0.00000000    0.00000000    0.00000000
     atom   18 type  4   force =     0.00000000    0.00000000    0.00000000
     atom   19 type  4   force =     0.00000000    0.00000000    0.00000000
     atom   20 type  4   force =     0.00000000    0.00000000    0.00000000
     atom   21 type  4   force =     0.00000000    0.00000000    0.00000000
     atom   22 type  4   force =     0.00000000    0.00000000    0.00000000
     atom   23 type  5   force =     0.00000000    0.00000000    0.00000000
     The SCF correction term to forces
     atom    1 type  1   force =    -0.00000000    0.00000000    0.00000000
     atom    2 type  1   force =    -0.00577635    0.01082606    0.01699334
     atom    3 type  1   force =    -0.00506776   -0.00433341    0.00362454
     atom    4 type  1   force =     0.00668820    0.00703454    0.01741418
     atom    5 type  1   force =     0.01056813   -0.00021320    0.01154495
     atom    6 type  2   force =    -0.00080140    0.00655888    0.01466074
     atom    7 type  2   force =     0.01872945   -0.03045696   -0.01814886
     atom    8 type  3   force =    -0.00168458   -0.00541538    0.01673928
     atom    9 type  3   force =    -0.00462032   -0.00156508    0.01874257
     atom   10 type  3   force =    -0.00071447    0.00863225    0.00299135
     atom   11 type  3   force =    -0.00338261    0.03029856   -0.01746022
     atom   12 type  3   force =    -0.00005884   -0.00164754    0.01186110
     atom   13 type  3   force =    -0.00426949    0.00659288   -0.01709095
     atom   14 type  3   force =     0.00340191    0.00515572   -0.00082887
     atom   15 type  3   force =     0.01101628    0.00857584   -0.01140142
     atom   16 type  3   force =     0.00677492   -0.00214914    0.00447236
     atom   17 type  3   force =     0.02801221    0.00673997   -0.01253006
     atom   18 type  4   force =     0.00098291   -0.00999070    0.01174274
     atom   19 type  4   force =    -0.00002962   -0.00525646    0.00845306
     atom   20 type  4   force =    -0.00487335   -0.02572096   -0.02038892
     atom   21 type  4   force =     0.00221263   -0.00224926    0.00373850
     atom   22 type  4   force =     0.01161068   -0.01085697   -0.01071045
     atom   23 type  5   force =     0.00264966   -0.00158049   -0.00006426

     Total force =     7.236252     Total SCF correction =     0.093647

     Entering Dynamics:    iteration =    10
                           time      =   0.0020 pico-seconds

ATOMIC_POSITIONS (angstrom)
Hf            2.6699999570        2.8271230292        6.6039642186    0   0   0
Hf            1.2526527994        1.2862431705        5.0584598430
Hf            1.2551634361        7.3898394082        5.0880706886
Hf            4.0873563257        1.2862474042        5.0584585698
Hf            4.0848473754        7.3898299413        5.0880546842
Nb            2.6699760780        2.7968209396        3.5156242304
Nb            2.6687583926        5.8777882185        6.6363349654
Ta            1.2090674430        4.3409395307        5.0711172362
Ta            4.1308902042        4.3405989561        5.0707643776
Ta            1.3071920146        1.3140357350        2.0586125929
Ta            1.3027262309        1.3082820322        8.0947338578
Ta            1.3039564891        7.3759241417        2.0460818659
Ta            1.3076941071        7.3651849078        8.0861854860
Ta            4.0328063403        1.3140413236        2.0586180635
Ta            4.0372664961        1.3082856639        8.0947477145
Ta            4.0360403558        7.3759270809        2.0460884368
Ta            4.0323116521        7.3652075093        8.0861906227
Zr            2.6699999421        5.8664423454        3.5273242670
Zr            1.2431108319        4.3220495576        1.9993461527
Zr            1.2396758797        4.3541526824        8.1504241487
Zr            4.0968864765        4.3220456561        1.9993387126
Zr            4.1003605738        4.3541227704        8.1504123276
H             2.4595063151        5.3076257915        6.0388799442

     kinetic energy (Ekin) =          16.31040494 Ry
     temperature           =       78036.64431398 K
     Ekin + Etot (const)   =       -2924.59060538 Ry

     The maximum number of steps has been reached.

     End of molecular dynamics calculation

     diffusion coefficients :
     atom     1   D =       0.00000000 cm^2/s
     atom     2   D =       0.00000000 cm^2/s
     atom     3   D =       0.00000000 cm^2/s
     atom     4   D =       0.00000000 cm^2/s
     atom     5   D =       0.00000000 cm^2/s
     atom     6   D =       0.00000000 cm^2/s
     atom     7   D =       0.00000004 cm^2/s
     atom     8   D =       0.00000000 cm^2/s
     atom     9   D =       0.00000000 cm^2/s
     atom    10   D =       0.00000000 cm^2/s
     atom    11   D =       0.00000000 cm^2/s
     atom    12   D =       0.00000000 cm^2/s
     atom    13   D =       0.00000000 cm^2/s
     atom    14   D =       0.00000000 cm^2/s
     atom    15   D =       0.00000000 cm^2/s
     atom    16   D =       0.00000000 cm^2/s
     atom    17   D =       0.00000000 cm^2/s
     atom    18   D =       0.00000000 cm^2/s
     atom    19   D =       0.00000001 cm^2/s
     atom    20   D =       0.00000001 cm^2/s
     atom    21   D =       0.00000001 cm^2/s
     atom    22   D =       0.00000001 cm^2/s
     atom    23   D =       0.07810110 cm^2/s

     < D > =       0.00355005 cm^2/s

     Writing all to output data dir outdir/pwscf.save/

     General routines

     Parallel routines

   This run was terminated on:  15:21:40   8Jun2023

   JOB DONE.