     Program PWSCF v.7.2 starts on 10Jun2023 at  5: 4:24

     Reading input from md_Hf5Nb2Ta10Zr5H_15steps_1000eV_incident45_polar45_hwthread.in
Warning: card &CELL ignored
Warning: card / ignored

     Current dimensions of program PWSCF are:
     Max number of different atomic species (ntypx) = 10
     Max number of k-points (npk) =  40000
     Max angular momentum in pseudopotentials (lmaxx) =  4

     File outdir/pwscf.update deleted, as requested

     File outdir/pwscf.md deleted, as requested

     gamma-point specific algorithms are used

     R & G space division:  proc/nbgrp/npool/nimage =      12
     Subspace diagonalization in iterative solution of the eigenvalue problem:
     one sub-group per band group will be used

     Using Slab Decomposition

     bravais-lattice index     =            0
     lattice parameter (alat)  =      21.4295  a.u.
     unit-cell volume          =    6741.9400 (a.u.)^3
     number of atoms/cell      =           23
     number of atomic types    =            5
     number of electrons       =       277.00
     number of Kohn-Sham states=          167
     kinetic-energy cutoff     =     120.0000  Ry
     charge density cutoff     =     480.0000  Ry
     scf convergence threshold =      1.0E-03
     mixing beta               =       0.7000
     number of iterations used =            8  TF        mixing
     energy convergence thresh.=      0.0E+00
     force convergence thresh. =      0.0E+00
     Exchange-correlation=  SLA  PW   PBX  PBC
                           (   1   4   3   4   0   0   0)
     nstep                     =           15

     celldm(1)=  21.429494  celldm(2)=   0.000000  celldm(3)=   0.000000
     celldm(4)=   0.000000  celldm(5)=   0.000000  celldm(6)=   0.000000

     crystal axes: (cart. coord. in units of alat)
               a(1) = (   1.000000   0.000000   0.000000 )
               a(2) = (   0.000000   0.765432   0.000000 )
               a(3) = (   0.000000   0.000000   0.895040 )

     reciprocal axes: (cart. coord. in units 2 pi/alat)
               b(1) = (  1.000000  0.000000  0.000000 )
               b(2) = (  0.000000  1.306452  0.000000 )
               b(3) = (  0.000000  0.000000  1.117268 )

     PseudoPot. # 1 for Hf read from file:
     q-e/pseudo/hf_pbe_v1.uspp.F.UPF
     MD5 check sum: 8ee9378dfe14276e333edf04c5e4aa26
     Pseudo is Ultrasoft + core correction, Zval = 12.0
     Generated by new atomic code, or converted to UPF format
     Using radial grid of  921 points,  8 beta functions with:
                l(1) =   0
                l(2) =   0
                l(3) =   0
                l(4) =   1
                l(5) =   1
                l(6) =   2
                l(7) =   2
                l(8) =   3
     Q(r) pseudized with  6 coefficients,  rinner =    1.200   1.200   1.200
                                                       1.200   1.200   1.200
                                                       1.200

     PseudoPot. # 2 for Nb read from file:
     q-e/pseudo/nb_pbe_v1.uspp.F.UPF
     MD5 check sum: 573aab8a2fa660278ed4a62cd769473f
     Pseudo is Ultrasoft + core correction, Zval = 13.0
     Generated by new atomic code, or converted to UPF format
     Using radial grid of  887 points,  6 beta functions with:
                l(1) =   0
                l(2) =   0
                l(3) =   1
                l(4) =   1
                l(5) =   2
                l(6) =   2
     Q(r) pseudized with  6 coefficients,  rinner =    1.000   1.000   1.000
                                                       1.000   1.000

     PseudoPot. # 3 for Ta read from file:
     q-e/pseudo/ta_pbe_v1.uspp.F.UPF
     MD5 check sum: f8bbe9446314a3b8ea5d9f3e3836c939
     Pseudo is Ultrasoft + core correction, Zval = 13.0
     Generated by new atomic code, or converted to UPF format
     Using radial grid of  921 points,  7 beta functions with:
                l(1) =   0
                l(2) =   0
                l(3) =   1
                l(4) =   1
                l(5) =   2
                l(6) =   2
                l(7) =   3
     Q(r) pseudized with  6 coefficients,  rinner =    1.300   1.300   1.300
                                                       1.300   1.300   1.300
                                                       1.300

     PseudoPot. # 4 for Zr read from file:
     q-e/pseudo/zr_pbe_v1.uspp.F.UPF
     MD5 check sum: 5db81b1e868ab7776c4564c113de050b
     Pseudo is Ultrasoft + core correction, Zval = 12.0
     Generated by new atomic code, or converted to UPF format
     Using radial grid of  887 points,  6 beta functions with:
                l(1) =   0
                l(2) =   0
                l(3) =   1
                l(4) =   1
                l(5) =   2
                l(6) =   2
     Q(r) pseudized with  6 coefficients,  rinner =    1.200   1.200   1.200
                                                       1.200   1.200

     PseudoPot. # 5 for H  read from file:
     q-e/pseudo/h_pbe_v1.4.uspp.F.UPF
     MD5 check sum: 761ae9a214b05c3daf00ab9f6b793d6f
     Pseudo is Ultrasoft, Zval =  1.0
     Generated by new atomic code, or converted to UPF format
     Using radial grid of  615 points,  2 beta functions with:
                l(1) =   0
                l(2) =   0
     Q(r) pseudized with  8 coefficients,  rinner =    0.700

     atomic species   valence    mass     pseudopotential
        Hf            12.00   178.49000     Hf( 1.00)
        Nb            13.00    92.90637     Nb( 1.00)
        Ta            13.00   180.94788     Ta( 1.00)
        Zr            12.00    91.22400     Zr( 1.00)
        H              1.00     2.01400     H ( 1.00)

     Starting magnetic structure
     atomic species   magnetization
        Hf           0.000
        Nb           0.000
        Ta           0.000
        Zr           0.000
        H            0.000

     No symmetry found

   Cartesian axes

     site n.     atom                  positions (alat units)
         1           Hf  tau(   1) = (   0.2354497   0.2493054   0.5823602  )
         2           Hf  tau(   2) = (   0.1104930   0.1134289   0.4460729  )
         3           Hf  tau(   3) = (   0.1107131   0.6516582   0.4486832  )
         4           Hf  tau(   4) = (   0.3604065   0.1134289   0.4460729  )
         5           Hf  tau(   5) = (   0.3601863   0.6516582   0.4486832  )
         6           Nb  tau(   6) = (   0.2354497   0.2466429   0.3100162  )
         7           Nb  tau(   7) = (   0.2354497   0.5181992   0.5850968  )
         8           Ta  tau(   8) = (   0.1066467   0.3827979   0.4471892  )
         9           Ta  tau(   9) = (   0.3642528   0.3827979   0.4471892  )
        10           Ta  tau(  10) = (   0.1152780   0.1158838   0.1815502  )
        11           Ta  tau(  11) = (   0.1148843   0.1153784   0.7138077  )
        12           Ta  tau(  12) = (   0.1149920   0.6504256   0.1804442  )
        13           Ta  tau(  13) = (   0.1153184   0.6494782   0.7130514  )
        14           Ta  tau(  14) = (   0.3556215   0.1158838   0.1815502  )
        15           Ta  tau(  15) = (   0.3560151   0.1153784   0.7138077  )
        16           Ta  tau(  16) = (   0.3559074   0.6504256   0.1804442  )
        17           Ta  tau(  17) = (   0.3555811   0.6494782   0.7130514  )
        18           Zr  tau(  18) = (   0.2354497   0.5173092   0.3110568  )
        19           Zr  tau(  19) = (   0.1096856   0.3811356   0.1763668  )
        20           Zr  tau(  20) = (   0.1093814   0.3839615   0.7186733  )
        21           Zr  tau(  21) = (   0.3612139   0.3811356   0.1763668  )
        22           Zr  tau(  22) = (   0.3615180   0.3839615   0.7186733  )
        23           H   tau(  23) = (   0.5513181   0.5149912   0.5795573  )

     number of k points=     1  Gaussian smearing, width (Ry)=  0.0220
                       cart. coord. in units 2pi/alat
        k(    1) = (   0.0000000   0.0000000   0.0000000), wk =   1.0000000

     Check: negative core charge=   -0.000002
     Generating pointlists ...
     new r_m :   0.0920 (alat units)  1.9717 (a.u.) for type    1
     new r_m :   0.0904 (alat units)  1.9374 (a.u.) for type    2
     new r_m :   0.0904 (alat units)  1.9374 (a.u.) for type    3
     new r_m :   0.0916 (alat units)  1.9625 (a.u.) for type    4
     new r_m :   0.1091 (alat units)  2.3386 (a.u.) for type    5

     Initial potential from superposition of free atoms

     starting charge     266.9726, renormalised to     277.0000

     negative rho (up, down):  9.211E-01 9.211E-01
     Starting wfcs are  287 randomized atomic wfcs

     Self-consistent Calculation

     iteration #  1     ecut=   120.00 Ry     beta= 0.70
     Davidson diagonalization with overlap
     ethr =  1.00E-02,  avg # of iterations =  2.0

     negative rho (up, down):  1.008E+00 1.008E+00

     total energy              =   -2927.96823333 Ry
     estimated scf accuracy    <     266.20974901 Ry

     total magnetization       =    -0.00 Bohr mag/cell
     absolute magnetization    =     0.07 Bohr mag/cell

[...]

     iteration # 14     ecut=   120.00 Ry     beta= 0.70
     Davidson diagonalization with overlap
     c_bands:  1 eigenvalues not converged
     ethr =  9.60E-07,  avg # of iterations = 14.0

[...]

     Magnetic moment per site  (integrated on atomic sphere of radius R)
     atom   1 (R=0.092)  charge=  9.4644    0.0001
     atom   2 (R=0.092)  charge=  9.0590   -0.0000
     atom   3 (R=0.092)  charge=  9.0593    0.0002
     atom   4 (R=0.092)  charge=  9.0551    0.0001
     atom   5 (R=0.092)  charge=  9.0559   -0.0001
     atom   6 (R=0.090)  charge= 10.3489    0.0000
     atom   7 (R=0.090)  charge= 10.3527   -0.0000
     atom   8 (R=0.090)  charge=  9.8051    0.0003
     atom   9 (R=0.090)  charge=  9.7999   -0.0000
     atom  10 (R=0.090)  charge=  9.7392    0.0001
     atom  11 (R=0.090)  charge=  9.7407    0.0007
     atom  12 (R=0.090)  charge=  9.7398    0.0003
     atom  13 (R=0.090)  charge=  9.7468   -0.0003
     atom  14 (R=0.090)  charge=  9.7420    0.0001
     atom  15 (R=0.090)  charge=  9.7416   -0.0001
     atom  16 (R=0.090)  charge=  9.7398    0.0003
     atom  17 (R=0.090)  charge=  9.7407   -0.0002
     atom  18 (R=0.092)  charge=  9.4540   -0.0001
     atom  19 (R=0.092)  charge=  8.9952   -0.0000
     atom  20 (R=0.092)  charge=  8.9932    0.0001
     atom  21 (R=0.092)  charge=  8.9923    0.0003
     atom  22 (R=0.092)  charge=  8.9888   -0.0001
     atom  23 (R=0.109)  charge=  1.2477    0.0000

     End of self-consistent calculation

 ------ SPIN UP ------------

          k = 0.0000 0.0000 0.0000 ( 74835 PWs)   bands (ev):

   -62.8343 -62.7898 -62.7670 -62.7462 -62.7212 -62.7133 -62.6785 -62.6685
   -62.6248 -62.5869 -56.4188 -56.3650 -56.2937 -56.2395 -54.7248 -48.3076
   -48.3043 -43.6812 -43.6596 -43.5832 -43.5565 -41.8359 -29.8223 -29.7932
   -29.7270 -29.7080 -29.6373 -29.5980 -29.5029 -29.4793 -29.4676 -29.3806
   -29.3477 -29.3016 -29.2919 -29.2811 -29.2538 -29.2360 -29.2083 -29.1919
   -29.1876 -29.1715 -29.1453 -29.1175 -28.9967 -28.9844 -28.9601 -28.9507
   -28.9180 -28.8925 -28.8786 -28.8637 -26.2051 -25.9947 -25.6884 -25.5978
[...]
     5.1283   5.1784   5.2581   5.3259   5.4073   5.5832   5.6171   5.6819
     5.6937   5.7231   5.8975   5.9983   6.0535   6.1419   6.1610   6.1896
     6.2765   6.3337   6.3988   6.4360   6.5179   6.5767   6.6123   6.7738
     6.7926   6.8587   7.0619   7.1033   7.2129   7.2665   7.3312

     the Fermi energy is     5.2886 ev

!    total energy              =   -2943.03900205 Ry
     estimated scf accuracy    <       0.00091130 Ry
     smearing contrib. (-TS)   =      -0.09340715 Ry
     internal energy E=F+TS    =   -2942.94559490 Ry

     total magnetization       =     0.00 Bohr mag/cell
     absolute magnetization    =     0.00 Bohr mag/cell

     convergence has been achieved in   5 iterations

     negative rho (up, down):  9.083E-01 9.083E-01

     Forces acting on atoms (cartesian axes, Ry/au):

     atom    1 type  1   force =     0.00188692   -0.02400375    0.00801549
     atom    2 type  1   force =    -0.11358690   -0.01346580    0.00366397
     atom    3 type  1   force =    -0.11202382    0.01177399    0.00549524
     atom    4 type  1   force =     0.12041178   -0.01373668    0.00372936
     atom    5 type  1   force =     0.11639464    0.00828967    0.01296626
     atom    6 type  2   force =     0.00196319   -0.00974915    0.01338035
     atom    7 type  2   force =    -0.01435929    0.01178343   -0.00944295
     atom    8 type  3   force =    -0.10221462    0.00619977   -0.00456346
     atom    9 type  3   force =     0.09769196   -0.00811311   -0.01641756
     atom   10 type  3   force =    -0.02523292   -0.03196753   -0.06156280
     atom   11 type  3   force =    -0.01864787   -0.04399285    0.05174466
     atom   12 type  3   force =    -0.01946953    0.03461746   -0.05560769
     atom   13 type  3   force =    -0.04792870    0.02159405    0.04367171
     atom   14 type  3   force =     0.02095735   -0.02925786   -0.05884934
     atom   15 type  3   force =     0.01836809   -0.01719853    0.04987011
     atom   16 type  3   force =     0.01852246    0.03573176   -0.05559144
     atom   17 type  3   force =    -0.11396423    0.10732865    0.13259827
     atom   18 type  4   force =    -0.00145357    0.02434887   -0.00014129
     atom   19 type  4   force =    -0.12690570   -0.00512256   -0.11750822
     atom   20 type  4   force =    -0.12291907    0.00649110    0.11440992
     atom   21 type  4   force =     0.12601189   -0.00514133   -0.11450920
     atom   22 type  4   force =     0.13913416    0.01308089    0.11054403
     atom   23 type  5   force =     0.15736378   -0.07949049   -0.05589541
     The non-local contrib.  to forces
     atom    1 type  1   force =    -0.00032773   -0.01044135    0.02528869
     atom    2 type  1   force =    -0.23797900   -0.16552614    0.01735266
     atom    3 type  1   force =    -0.23575203    0.16056859   -0.02854574
     atom    4 type  1   force =     0.24047354   -0.15906311    0.01924148
     atom    5 type  1   force =     0.26456285    0.14103028    0.00236024
     atom    6 type  2   force =    -0.00689572   -0.03905914   -0.06316581
     atom    7 type  2   force =    -0.02875133    0.06311780    0.05629073
     atom    8 type  3   force =    -0.25823579    0.00923386   -0.00274132
     atom    9 type  3   force =     0.26778348   -0.00226312   -0.01071256
     atom   10 type  3   force =    -0.21100169   -0.00067561   -0.20211715
     atom   11 type  3   force =    -0.22363958    0.00618016    0.18588202
     atom   12 type  3   force =    -0.19578305   -0.01645927   -0.18090085
     atom   13 type  3   force =    -0.16119751    0.00229245    0.20949527
     atom   14 type  3   force =     0.20317713    0.00464927   -0.20290155
     atom   15 type  3   force =     0.24023618    0.01792613    0.18846846
     atom   16 type  3   force =     0.20148985   -0.01794075   -0.17676281
     atom   17 type  3   force =    -0.01784006    0.08278834    0.25878209
     atom   18 type  4   force =     0.00577870    0.04134624   -0.05613495
     atom   19 type  4   force =     0.06328787    0.00642212    0.07734154
     atom   20 type  4   force =     0.04784373   -0.00809134   -0.06412287
     atom   21 type  4   force =    -0.05912358    0.01231021    0.07441816
     atom   22 type  4   force =    -0.05918382    0.00455068   -0.07184027
     atom   23 type  5   force =    -0.08183849    0.02620931    0.02554446
     The ionic contribution  to forces
     atom    1 type  1   force =    -0.15575030   -4.53271100   13.62496967
     atom    2 type  1   force =   -47.10080934   -6.04152179    0.69598287
     atom    3 type  1   force =   -47.11395271    6.08474685   -0.85156097
     atom    4 type  1   force =    46.91537475   -5.95821581    0.58921662
     atom    5 type  1   force =    46.70456371    6.16237968   -1.22267739
     atom    6 type  2   force =    -0.08503748   -3.48964974  -13.62460139
     atom    7 type  2   force =    -0.47364172    3.26188730   13.31779927
     atom    8 type  3   force =   -60.40114590    0.02260786   -0.15067370
     atom    9 type  3   force =    60.15695665   -0.11207059   -0.31588738
     atom   10 type  3   force =   -43.40045842   -2.02682882  -22.53199384
     atom   11 type  3   force =   -42.63335989   -0.67485096   21.58584351
     atom   12 type  3   force =   -42.62499904    0.77334246  -21.56401332
     atom   13 type  3   force =   -43.84912535    2.13335980   22.54518477
     atom   14 type  3   force =    43.26886801   -1.99536001  -22.49609597
     atom   15 type  3   force =    42.29573518   -0.30293393   21.59452574
     atom   16 type  3   force =    42.44254970    0.78495340  -21.48024258
     atom   17 type  3   force =    40.28084692    2.93689149   23.36837405
     atom   18 type  4   force =    -0.11738318    4.25646706  -13.63980913
     atom   19 type  4   force =   -42.96336843    0.92325855  -24.98196304
     atom   20 type  4   force =   -43.05939589   -1.04717097   25.01048748
     atom   21 type  4   force =    42.83693021    0.88802443  -24.94429430
     atom   22 type  4   force =    42.59190089   -1.44467865   25.08911242
     atom   23 type  5   force =     6.48470164   -0.60192662    0.38231661
     The local contribution  to forces
     atom    1 type  1   force =     0.18682346    4.51628698  -13.62623268
     atom    2 type  1   force =    47.25308295    6.19469608   -0.69212354
     atom    3 type  1   force =    47.26537290   -6.23739492    0.90781932
     atom    4 type  1   force =   -47.03096677    6.10772125   -0.58786955
     atom    5 type  1   force =   -46.84970098   -6.30012791    1.24594708
     atom    6 type  2   force =     0.12920646    3.52218264   13.71908536
     atom    7 type  2   force =     0.50483659   -3.31709248  -13.37703888
     atom    8 type  3   force =    60.61346786   -0.02422672    0.16912048
     atom    9 type  3   force =   -60.33810489    0.10757124    0.32836659
     atom   10 type  3   force =    43.62467140    1.98901828   22.68851786
     atom   11 type  3   force =    42.88383320    0.60862542  -21.74002950
     atom   12 type  3   force =    42.83612802   -0.71686247   21.70597245
     atom   13 type  3   force =    43.98471447   -2.09999449  -22.73516296
     atom   14 type  3   force =   -43.44680868    1.96212565   22.65827162
     atom   15 type  3   force =   -42.52637581    0.27825939  -21.75690890
     atom   16 type  3   force =   -42.62304020   -0.72712109   21.62339894
     atom   17 type  3   force =   -40.35232505   -2.91791603  -23.53302916
     atom   18 type  4   force =     0.14064648   -4.27671414   13.71423323
     atom   19 type  4   force =    42.80168627   -0.93436352   24.79479496
     atom   20 type  4   force =    42.91675264    1.06439742  -24.84524198
     atom   21 type  4   force =   -42.63811639   -0.90797895   24.76942418
     atom   22 type  4   force =   -42.38300701    1.44257264  -24.92560272
     atom   23 type  5   force =    -6.23943213    0.49512498   -0.46338852
     The core correction contribution to forces
     atom    1 type  1   force =    -0.00029910    0.00113589   -0.00211275
     atom    2 type  1   force =    -0.01232489   -0.00252868    0.00016518
     atom    3 type  1   force =    -0.01247086    0.00323266   -0.00254793
     atom    4 type  1   force =     0.01219314   -0.00113003   -0.00012461
     atom    5 type  1   force =     0.01351623    0.00139478   -0.00046558
     atom    6 type  2   force =     0.00046794    0.00191136    0.00275086
     atom    7 type  2   force =     0.00121183   -0.00341650   -0.00233998
     atom    8 type  3   force =    -0.03310054    0.00121205   -0.00023830
     atom    9 type  3   force =     0.03320371   -0.00072247   -0.00202628
     atom   10 type  3   force =    -0.02213564    0.01002835   -0.01641670
     atom   11 type  3   force =    -0.02479624    0.00932091    0.01576401
     atom   12 type  3   force =    -0.02143699   -0.00978750   -0.01687468
     atom   13 type  3   force =    -0.01735536   -0.01110592    0.01769711
     atom   14 type  3   force =     0.02109540    0.00985363   -0.01649267
     atom   15 type  3   force =     0.02491561    0.00912524    0.01636966
     atom   16 type  3   force =     0.02148701   -0.01050203   -0.01631246
     atom   17 type  3   force =     0.00220023    0.00397266    0.02642773
     atom   18 type  4   force =    -0.00014535   -0.00230340    0.00288546
     atom   19 type  4   force =    -0.00981144    0.00018847   -0.00979188
     atom   20 type  4   force =    -0.00902808    0.00019542    0.00906263
     atom   21 type  4   force =     0.00977100   -0.00020835   -0.00961798
     atom   22 type  4   force =     0.01048637   -0.00023166    0.00931461
     atom   23 type  5   force =     0.00000000    0.00000000    0.00000000
     The Hubbard contrib.    to forces
     atom    1 type  1   force =     0.00000000    0.00000000    0.00000000
     atom    2 type  1   force =     0.00000000    0.00000000    0.00000000
     atom    3 type  1   force =     0.00000000    0.00000000    0.00000000
     atom    4 type  1   force =     0.00000000    0.00000000    0.00000000
     atom    5 type  1   force =     0.00000000    0.00000000    0.00000000
     atom    6 type  2   force =     0.00000000    0.00000000    0.00000000
     atom    7 type  2   force =     0.00000000    0.00000000    0.00000000
     atom    8 type  3   force =     0.00000000    0.00000000    0.00000000
     atom    9 type  3   force =     0.00000000    0.00000000    0.00000000
     atom   10 type  3   force =     0.00000000    0.00000000    0.00000000
     atom   11 type  3   force =     0.00000000    0.00000000    0.00000000
     atom   12 type  3   force =     0.00000000    0.00000000    0.00000000
     atom   13 type  3   force =     0.00000000    0.00000000    0.00000000
     atom   14 type  3   force =     0.00000000    0.00000000    0.00000000
     atom   15 type  3   force =     0.00000000    0.00000000    0.00000000
     atom   16 type  3   force =     0.00000000    0.00000000    0.00000000
     atom   17 type  3   force =     0.00000000    0.00000000    0.00000000
     atom   18 type  4   force =     0.00000000    0.00000000    0.00000000
     atom   19 type  4   force =     0.00000000    0.00000000    0.00000000
     atom   20 type  4   force =     0.00000000    0.00000000    0.00000000
     atom   21 type  4   force =     0.00000000    0.00000000    0.00000000
     atom   22 type  4   force =     0.00000000    0.00000000    0.00000000
     atom   23 type  5   force =     0.00000000    0.00000000    0.00000000
     The SCF correction term to forces
     atom    1 type  1   force =    -0.02553891    0.00168928   -0.01265726
     atom    2 type  1   force =    -0.01253612    0.00137827   -0.01647303
     atom    3 type  1   force =    -0.01220062    0.00058436   -0.01842927
     atom    4 type  1   force =    -0.01364239   -0.00308542   -0.01549442
     atom    5 type  1   force =    -0.01352667    0.00357637   -0.01095792
     atom    6 type  2   force =    -0.03275751   -0.00517073   -0.01944850
     atom    7 type  2   force =    -0.01499417    0.00725086   -0.00291392
     atom    8 type  3   force =    -0.02017975   -0.00266373   -0.01879045
     atom    9 type  3   force =    -0.01912650   -0.00066463   -0.01491776
     atom   10 type  3   force =    -0.01328808   -0.00354618    0.00168720
     atom   11 type  3   force =    -0.01766487    0.00669516    0.00552479
     atom   12 type  3   force =    -0.01035796    0.00434780    0.00144888
     atom   13 type  3   force =    -0.00194445   -0.00299424    0.00769770
     atom   14 type  3   force =    -0.02235401   -0.01056284   -0.00039061
     atom   15 type  3   force =    -0.01312256   -0.01961181    0.00865532
     atom   16 type  3   force =    -0.02094340    0.00630579   -0.00443237
     atom   17 type  3   force =    -0.02382577    0.00155574    0.01328374
     atom   18 type  4   force =    -0.02732973    0.00551665   -0.02007572
     atom   19 type  4   force =    -0.01567946   -0.00066463    0.00335037
     atom   20 type  4   force =    -0.01607096   -0.00287588    0.00546483
     atom   21 type  4   force =    -0.02042885    0.00267488   -0.00319909
     atom   22 type  4   force =    -0.01804178    0.01083142    0.01080016
     atom   23 type  5   force =    -0.00304674    0.00106539    0.00087222

     Total force =     0.551562     Total SCF correction =     0.107765
     SCF correction compared to forces is large: reduce conv_thr to get better values

     Entering Dynamics:    iteration =    15
                           time      =   0.0030 pico-seconds

ATOMIC_POSITIONS (angstrom)
Hf            2.6719828006        2.8255537101        6.6025520160
Hf            1.2542530246        1.2847800394        5.0570375641
Hf            1.2567619326        7.3884591457        5.0866538632
Hf            4.0897748495        1.2847696835        5.0570292256
Hf            4.0872933431        7.3884376167        5.0867185929
Nb            2.6720373346        2.7953714782        3.5143418853
Nb            2.6718484502        5.8751714604        6.6334837290
Ta            1.2107290503        4.3395264104        5.0696616474
Ta            4.1332852924        4.3394848967        5.0696422911
Ta            1.3091171033        1.3124882828        2.0569835468
Ta            1.3046738137        1.3067351216        8.0935060917
Ta            1.3059004630        7.3746307390        2.0444705872
Ta            1.3096516065        7.3638374279        8.0849299603
Ta            4.0348859075        1.3125053535        2.0569932890
Ta            4.0393444574        1.3067436202        8.0935176314
Ta            4.0381099039        7.3746453938        2.0444795938
Ta            4.0035402804        7.3801810172        8.0997830889
Zr            2.6719958103        5.8652003041        3.5259175698
Zr            1.2442335059        4.3205992543        1.9970991489
Zr            1.2408184731        4.3527790220        8.1498138805
Zr            4.0997688804        4.3205995562        1.9971125895
Zr            4.1033979582        4.3528461187        8.1497983919
H             5.6847845724        6.7297974031        7.6005332369

     kinetic energy (Ekin) =          18.26124748 Ry
     temperature           =       87370.39204049 K
     Ekin + Etot (const)   =       -2924.77775458 Ry

     Linear momentum :    0.0000000000   -0.0000000000    0.0000000000

     The maximum number of steps has been reached.

     End of molecular dynamics calculation

     diffusion coefficients :
     atom     1   D =       0.00000005 cm^2/s
     atom     2   D =       0.00000003 cm^2/s
     atom     3   D =       0.00000003 cm^2/s
     atom     4   D =       0.00000007 cm^2/s
     atom     5   D =       0.00000006 cm^2/s
     atom     6   D =       0.00000004 cm^2/s
     atom     7   D =       0.00000004 cm^2/s
     atom     8   D =       0.00000003 cm^2/s
     atom     9   D =       0.00000006 cm^2/s
     atom    10   D =       0.00000005 cm^2/s
     atom    11   D =       0.00000004 cm^2/s
     atom    12   D =       0.00000004 cm^2/s
     atom    13   D =       0.00000004 cm^2/s
     atom    14   D =       0.00000006 cm^2/s
     atom    15   D =       0.00000005 cm^2/s
     atom    16   D =       0.00000005 cm^2/s
     atom    17   D =       0.00000680 cm^2/s
     atom    18   D =       0.00000004 cm^2/s
     atom    19   D =       0.00000006 cm^2/s
     atom    20   D =       0.00000001 cm^2/s
     atom    21   D =       0.00000013 cm^2/s
     atom    22   D =       0.00000009 cm^2/s
     atom    23   D =       0.01187156 cm^2/s

     < D > =       0.00051650 cm^2/s

     Writing all to output data dir outdir/pwscf.save/

     General routines

     Parallel routines

   This run was terminated on:   6:45:24  10Jun2023

   JOB DONE.