     Program PWSCF v.7.2 starts on  6Jun2023 at 20: 3:37

     Reading input from md_Hf5Nb2Ta10Zr5H_15steps_1000eV_fix_bottom_layer_only.in
Warning: card &CELL ignored
Warning: card / ignored

     Current dimensions of program PWSCF are:
     Max number of different atomic species (ntypx) = 10
     Max number of k-points (npk) =  40000
     Max angular momentum in pseudopotentials (lmaxx) =  4

     File outdir/pwscf.md deleted, as requested

     gamma-point specific algorithms are used

     R & G space division:  proc/nbgrp/npool/nimage =      12
     Subspace diagonalization in iterative solution of the eigenvalue problem:
     one sub-group per band group will be used

     Using Slab Decomposition

     bravais-lattice index     =            0
     lattice parameter (alat)  =      15.7603  a.u.
     unit-cell volume          =    4958.3580 (a.u.)^3
     number of atoms/cell      =           23
     number of atomic types    =            5
     number of electrons       =       277.00
     number of Kohn-Sham states=          167
     kinetic-energy cutoff     =     120.0000  Ry
     charge density cutoff     =     480.0000  Ry
     scf convergence threshold =      1.0E-03
     mixing beta               =       0.7000
     number of iterations used =            8  TF        mixing
     energy convergence thresh.=      0.0E+00
     force convergence thresh. =      0.0E+00
     Exchange-correlation=  SLA  PW   PBX  PBC
                           (   1   4   3   4   0   0   0)
     nstep                     =           15

     celldm(1)=  15.760315  celldm(2)=   0.000000  celldm(3)=   0.000000
     celldm(4)=   0.000000  celldm(5)=   0.000000  celldm(6)=   0.000000

     crystal axes: (cart. coord. in units of alat)
               a(1) = (   1.000000   0.000000   0.000000 )
               a(2) = (   0.000000   1.040767   0.000000 )
               a(3) = (   0.000000   0.000000   1.216997 )

     reciprocal axes: (cart. coord. in units 2 pi/alat)
               b(1) = (  1.000000  0.000000  0.000000 )
               b(2) = (  0.000000  0.960830  0.000000 )
               b(3) = (  0.000000  0.000000  0.821695 )

     PseudoPot. # 1 for Hf read from file:
     q-e/pseudo/hf_pbe_v1.uspp.F.UPF
     MD5 check sum: 8ee9378dfe14276e333edf04c5e4aa26
     Pseudo is Ultrasoft + core correction, Zval = 12.0
     Generated by new atomic code, or converted to UPF format
     Using radial grid of  921 points,  8 beta functions with:
                l(1) =   0
                l(2) =   0
                l(3) =   0
                l(4) =   1
                l(5) =   1
                l(6) =   2
                l(7) =   2
                l(8) =   3
     Q(r) pseudized with  6 coefficients,  rinner =    1.200   1.200   1.200
                                                       1.200   1.200   1.200
                                                       1.200

     PseudoPot. # 2 for Nb read from file:
     q-e/pseudo/nb_pbe_v1.uspp.F.UPF
     MD5 check sum: 573aab8a2fa660278ed4a62cd769473f
     Pseudo is Ultrasoft + core correction, Zval = 13.0
     Generated by new atomic code, or converted to UPF format
     Using radial grid of  887 points,  6 beta functions with:
                l(1) =   0
                l(2) =   0
                l(3) =   1
                l(4) =   1
                l(5) =   2
                l(6) =   2
     Q(r) pseudized with  6 coefficients,  rinner =    1.000   1.000   1.000
                                                       1.000   1.000

     PseudoPot. # 3 for Ta read from file:
     q-e/pseudo/ta_pbe_v1.uspp.F.UPF
     MD5 check sum: f8bbe9446314a3b8ea5d9f3e3836c939
     Pseudo is Ultrasoft + core correction, Zval = 13.0
     Generated by new atomic code, or converted to UPF format
     Using radial grid of  921 points,  7 beta functions with:
                l(1) =   0
                l(2) =   0
                l(3) =   1
                l(4) =   1
                l(5) =   2
                l(6) =   2
                l(7) =   3
     Q(r) pseudized with  6 coefficients,  rinner =    1.300   1.300   1.300
                                                       1.300   1.300   1.300
                                                       1.300

     PseudoPot. # 4 for Zr read from file:
     q-e/pseudo/zr_pbe_v1.uspp.F.UPF
     MD5 check sum: 5db81b1e868ab7776c4564c113de050b
     Pseudo is Ultrasoft + core correction, Zval = 12.0
     Generated by new atomic code, or converted to UPF format
     Using radial grid of  887 points,  6 beta functions with:
                l(1) =   0
                l(2) =   0
                l(3) =   1
                l(4) =   1
                l(5) =   2
                l(6) =   2
     Q(r) pseudized with  6 coefficients,  rinner =    1.200   1.200   1.200
                                                       1.200   1.200

     PseudoPot. # 5 for H  read from file:
     q-e/pseudo/h_pbe_v1.4.uspp.F.UPF
     MD5 check sum: 761ae9a214b05c3daf00ab9f6b793d6f
     Pseudo is Ultrasoft, Zval =  1.0
     Generated by new atomic code, or converted to UPF format
     Using radial grid of  615 points,  2 beta functions with:
                l(1) =   0
                l(2) =   0
     Q(r) pseudized with  8 coefficients,  rinner =    0.700

     atomic species   valence    mass     pseudopotential
        Hf            12.00   178.49000     Hf( 1.00)
        Nb            13.00    92.90637     Nb( 1.00)
        Ta            13.00   180.94788     Ta( 1.00)
        Zr            12.00    91.22400     Zr( 1.00)
        H              1.00     2.01400     H ( 1.00)

     Starting magnetic structure
     atomic species   magnetization
        Hf           0.000
        Nb           0.000
        Ta           0.000
        Zr           0.000
        H            0.000

     No symmetry found

   Cartesian axes

     site n.     atom                  positions (alat units)
         1           Hf  tau(   1) = (   0.3201439   0.3389836   0.7918423  )
         2           Hf  tau(   2) = (   0.1502387   0.1542307   0.6065307  )
         3           Hf  tau(   3) = (   0.1505380   0.8860677   0.6100801  )
         4           Hf  tau(   4) = (   0.4900491   0.1542307   0.6065307  )
         5           Hf  tau(   5) = (   0.4897498   0.8860677   0.6100801  )
         6           Nb  tau(   6) = (   0.3201439   0.3353634   0.4215328  )
         7           Nb  tau(   7) = (   0.3201439   0.7046018   0.7955633  )
         8           Ta  tau(   8) = (   0.1450088   0.5204950   0.6080487  )
         9           Ta  tau(   9) = (   0.4952790   0.5204950   0.6080487  )
        10           Ta  tau(  10) = (   0.1567449   0.1575687   0.2468560  )
        11           Ta  tau(  11) = (   0.1562096   0.1568814   0.9705731  )
        12           Ta  tau(  12) = (   0.1563561   0.8843917   0.2453522  )
        13           Ta  tau(  13) = (   0.1567999   0.8831035   0.9695447  )
        14           Ta  tau(  14) = (   0.4835429   0.1575687   0.2468560  )
        15           Ta  tau(  15) = (   0.4840781   0.1568814   0.9705731  )
        16           Ta  tau(  16) = (   0.4839317   0.8843917   0.2453522  )
        17           Ta  tau(  17) = (   0.4834879   0.8831035   0.9695447  )
        18           Zr  tau(  18) = (   0.3201439   0.7033916   0.4229477  )
        19           Zr  tau(  19) = (   0.1491408   0.5182348   0.2398082  )
        20           Zr  tau(  20) = (   0.1487273   0.5220772   0.9771889  )
        21           Zr  tau(  21) = (   0.4911469   0.5182348   0.2398082  )
        22           Zr  tau(  22) = (   0.4915605   0.5220772   0.9771889  )
        23           H   tau(  23) = (   0.6751351   0.5203837   0.6081751  )

     number of k points=     1  Gaussian smearing, width (Ry)=  0.0220
                       cart. coord. in units 2pi/alat
        k(    1) = (   0.0000000   0.0000000   0.0000000), wk =   1.0000000

     Check: negative core charge=   -0.000002
     Generating pointlists ...
     new r_m :   0.1251 (alat units)  1.9717 (a.u.) for type    1
     new r_m :   0.1229 (alat units)  1.9374 (a.u.) for type    2
     new r_m :   0.0742 (alat units)  1.1693 (a.u.) for type    3
     new r_m :   0.1245 (alat units)  1.9625 (a.u.) for type    4
     new r_m :   0.0742 (alat units)  1.1693 (a.u.) for type    5

     Initial potential from superposition of free atoms

     starting charge     266.9726, renormalised to     277.0000

     negative rho (up, down):  9.206E-01 9.206E-01
     Starting wfcs are  287 randomized atomic wfcs

     Self-consistent Calculation

     iteration #  1     ecut=   120.00 Ry     beta= 0.70
     Davidson diagonalization with overlap
     ethr =  1.00E-02,  avg # of iterations =  3.0

     negative rho (up, down):  9.825E-01 9.822E-01

     total energy              =   -2932.09787611 Ry
     estimated scf accuracy    <     291.81665252 Ry

     total magnetization       =    -0.00 Bohr mag/cell
     absolute magnetization    =     0.08 Bohr mag/cell

[...]

     Magnetic moment per site  (integrated on atomic sphere of radius R)
     atom   1 (R=0.125)  charge=  9.4607  magn= -0.0000
     atom   2 (R=0.125)  charge=  9.0586  magn=  0.0003
     atom   3 (R=0.125)  charge=  9.0582  magn=  0.0000
     atom   4 (R=0.125)  charge=  9.0565  magn=  0.0003
     atom   5 (R=0.125)  charge=  9.0561  magn= -0.0002
     atom   6 (R=0.123)  charge= 10.3453  magn= -0.0000
     atom   7 (R=0.123)  charge= 10.3469  magn= -0.0001
     atom   8 (R=0.074)  charge=  5.2336  magn=  0.0001
     atom   9 (R=0.074)  charge=  5.2523  magn=  0.0001
     atom  10 (R=0.074)  charge=  5.2165  magn=  0.0002
     atom  11 (R=0.074)  charge=  5.2160  magn=  0.0001
     atom  12 (R=0.074)  charge=  5.2167  magn= -0.0002
     atom  13 (R=0.074)  charge=  5.2164  magn= -0.0003
     atom  14 (R=0.074)  charge=  5.2164  magn=  0.0004
     atom  15 (R=0.074)  charge=  5.2162  magn=  0.0001
     atom  16 (R=0.074)  charge=  5.2177  magn= -0.0005
     atom  17 (R=0.074)  charge=  5.2156  magn= -0.0003
     atom  18 (R=0.125)  charge=  9.4559  magn= -0.0001
     atom  19 (R=0.125)  charge=  9.0006  magn=  0.0016
     atom  20 (R=0.125)  charge=  8.9992  magn= -0.0017
     atom  21 (R=0.125)  charge=  8.9970  magn=  0.0014
     atom  22 (R=0.125)  charge=  8.9971  magn= -0.0014
     atom  23 (R=0.074)  charge=  0.8828  magn=  0.0000

     End of self-consistent calculation

 ------ SPIN UP ------------

          k = 0.0000 0.0000 0.0000 ( 55051 PWs)   bands (ev):

   -59.4835 -59.4792 -59.4383 -59.4341 -59.4051 -59.4005 -59.3613 -59.3568
   -59.2289 -58.7539 -53.0943 -53.0370 -52.9704 -52.9136 -51.3633 -44.9047
   -44.9022 -40.3153 -40.3042 -40.2129 -40.2093 -38.4707 -26.4831 -26.4774
   -26.3989 -26.3897 -26.3024 -26.2977 -26.1788 -26.1696 -26.0539 -26.0250
   -25.9890 -25.9612 -25.9542 -25.9266 -25.9161 -25.8665 -25.8562 -25.8353
   -25.7983 -25.6685 -25.6644 -25.6535 -25.6450 -25.5915 -25.5874 -25.5689
   -25.5657 -25.5010 -25.4764 -25.4288 -22.8717 -22.6621 -22.3480 -22.2720
   -22.0102 -21.8682 -21.8452 -21.7436 -21.6277 -21.5586 -21.5419 -21.3266
   -21.1531 -21.1059 -21.0626 -21.0112 -20.9555 -20.8982 -20.4339 -20.3630
[...]
     7.2346   7.4548   7.4708   7.5654   7.5760   7.5892   7.6631   7.7019
     7.8450   7.8882   7.9418   8.0442   8.1854   8.2816   8.3284   8.3566
     8.5149   8.5607   8.5816   8.6268   8.6281   8.8172   8.8614   8.9278
     8.9454   8.9676   9.2117   9.2977   9.3608   9.4050   9.5567   9.6365
     9.6459   9.6531   9.6789   9.7064   9.7578   9.8627   9.9910  10.0233
    10.1596  10.2420  10.4232  10.4300  10.4372  10.5406  10.5801

     the Fermi energy is     8.5835 ev

!    total energy              =   -2943.04077439 Ry
     estimated scf accuracy    <       0.00016213 Ry
     smearing contrib. (-TS)   =      -0.10188880 Ry
     internal energy E=F+TS    =   -2942.93888559 Ry

     total magnetization       =    -0.00 Bohr mag/cell
     absolute magnetization    =     0.00 Bohr mag/cell

     convergence has been achieved in   5 iterations

     negative rho (up, down):  9.078E-01 9.078E-01

     Forces acting on atoms (cartesian axes, Ry/au):

     atom    1 type  1   force =    -0.00236324   -0.03129731    0.02137001
     atom    2 type  1   force =    -0.11882155   -0.01546956   -0.00392927
     atom    3 type  1   force =    -0.11752012    0.01311868    0.00153837
     atom    4 type  1   force =     0.11833950   -0.01622941   -0.00377499
     atom    5 type  1   force =     0.11690078    0.01369864    0.00143117
     atom    6 type  2   force =    -0.00256411   -0.02103167   -0.00114460
     atom    7 type  2   force =    -0.00250410    0.01835343    0.00302909
     atom    8 type  3   force =    -0.19897904    0.00196147   -0.00268229
     atom    9 type  3   force =     0.16922460    0.00361797   -0.00388299
     atom   10 type  3   force =    -0.02283682   -0.02832060   -0.05737082
     atom   11 type  3   force =    -0.02114859   -0.03198354    0.05532356
     atom   12 type  3   force =    -0.01811344    0.03314419   -0.05252179
     atom   13 type  3   force =    -0.01801462    0.02649479    0.05835382
     atom   14 type  3   force =     0.02447086   -0.03195953   -0.06030014
     atom   15 type  3   force =     0.02153912   -0.03598155    0.05855560
     atom   16 type  3   force =     0.01842145    0.03691362   -0.05568064
     atom   17 type  3   force =     0.01993955    0.03014592    0.06136188
     atom   18 type  4   force =    -0.00054790    0.03264540   -0.02420570
     atom   19 type  4   force =    -0.13423786   -0.00432161   -0.11646076
     atom   20 type  4   force =    -0.13753202    0.00539223    0.11820254
     atom   21 type  4   force =     0.13394922   -0.00452297   -0.11648601
     atom   22 type  4   force =     0.13689751    0.00573148    0.11835601
     atom   23 type  5   force =     0.03550082   -0.00010006    0.00091796
     The non-local contrib.  to forces
     atom    1 type  1   force =     0.00818891   -0.01574753    0.03184826
     atom    2 type  1   force =    -0.26059657   -0.15763167    0.01688631
     atom    3 type  1   force =    -0.25445328    0.15326335   -0.02775692
     atom    4 type  1   force =     0.25699026   -0.16342036    0.01709231
     atom    5 type  1   force =     0.25075484    0.15873458   -0.02834810
     atom    6 type  2   force =     0.00843250   -0.06129539   -0.06269931
     atom    7 type  2   force =     0.00968606    0.07107672    0.05576453
     atom    8 type  3   force =    -0.18130781    0.00076635   -0.00462518
     atom    9 type  3   force =     0.27643851   -0.00073722   -0.00351845
     atom   10 type  3   force =    -0.21576268    0.00640375   -0.21291257
     atom   11 type  3   force =    -0.22093863    0.01053728    0.20240693
     atom   12 type  3   force =    -0.20052650   -0.02094969   -0.18763872
     atom   13 type  3   force =    -0.21094660   -0.00825339    0.21208393
     atom   14 type  3   force =     0.21194767    0.00466824   -0.21240463
     atom   15 type  3   force =     0.21527484    0.00757994    0.20236260
     atom   16 type  3   force =     0.19569336   -0.01897720   -0.18647435
     atom   17 type  3   force =     0.20779300   -0.00588266    0.21165231
     atom   18 type  4   force =     0.00757279    0.06917114   -0.06423841
     atom   19 type  4   force =     0.06376264    0.00800950    0.06334862
     atom   20 type  4   force =     0.06000661   -0.00953336   -0.05848555
     atom   21 type  4   force =    -0.06848477    0.00737669    0.06150197
     atom   22 type  4   force =    -0.06442862   -0.00870237   -0.05573176
     atom   23 type  5   force =     0.01900225    0.00019029   -0.00019043
     The ionic contribution  to forces
     atom    1 type  1   force =     0.06078278   -4.98726353   14.70902021
     atom    2 type  1   force =   -34.39251070   -6.42153713    0.77602488
     atom    3 type  1   force =   -34.38092639    6.40293529   -0.71316768
     atom    4 type  1   force =    34.55916075   -6.27151328    0.77832129
     atom    5 type  1   force =    34.54597921    6.25806736   -0.71308693
     atom    6 type  2   force =     0.06711390   -3.96037070  -14.65071283
     atom    7 type  2   force =     0.06789782    3.99571983   14.68390199
     atom    8 type  3   force =   -45.71295194    0.08317063   -0.07975162
     atom    9 type  3   force =    45.90770943    0.08043489   -0.07666283
     atom   10 type  3   force =   -31.04100436   -2.18643873  -23.69087096
     atom   11 type  3   force =   -30.10752645   -0.93488086   22.69365227
     atom   12 type  3   force =   -30.22933255    0.88071566  -22.74010113
     atom   13 type  3   force =   -31.01666833    2.27396952   23.67389560
     atom   14 type  3   force =    31.09895576   -2.14760043  -23.64060629
     atom   15 type  3   force =    30.16575209   -0.89481126   22.64230185
     atom   16 type  3   force =    30.28595105    0.84303841  -22.69102205
     atom   17 type  3   force =    31.07495309    2.23488347   23.62367444
     atom   18 type  4   force =     0.05589232    4.74598840  -14.56325954
     atom   19 type  4   force =   -30.99466005    0.96027092  -26.29327528
     atom   20 type  4   force =   -30.95937530   -0.95372206   26.27723563
     atom   21 type  4   force =    31.14653277    0.96058432  -26.13299600
     atom   22 type  4   force =    31.11320276   -0.95573758   26.11121531
     atom   23 type  5   force =    -1.31492765   -0.00590316    0.01626967
     The local contribution  to forces
     atom    1 type  1   force =    -0.07501206    4.97011752  -14.72316815
     atom    2 type  1   force =    34.54628076    6.56593698   -0.80342132
     atom    3 type  1   force =    34.52994728   -6.54576732    0.73869981
     atom    4 type  1   force =   -34.71326677    6.41693239   -0.80571162
     atom    5 type  1   force =   -34.69523011   -6.40201613    0.73922896
     atom    6 type  2   force =    -0.08252294    3.99582068   14.70422441
     atom    7 type  2   force =    -0.08426366   -4.04743656  -14.74043954
     atom    8 type  3   force =    45.71520616   -0.08248931    0.07827405
     atom    9 type  3   force =   -46.06371900   -0.07628543    0.07277633
     atom   10 type  3   force =    31.25609998    2.13853183   23.86098709
     atom   11 type  3   force =    30.33166555    0.88447318  -22.85583553
     atom   12 type  3   force =    30.43404356   -0.81322508   22.88906586
     atom   13 type  3   force =    31.23199477   -2.23278241  -23.84220140
     atom   14 type  3   force =   -31.30949034    2.09627419   23.80635497
     atom   15 type  3   force =   -30.38492804    0.84267971  -22.80043309
     atom   16 type  3   force =   -30.48628277   -0.77290972   22.83471574
     atom   17 type  3   force =   -31.28655909   -2.19131273  -23.78785067
     atom   18 type  4   force =    -0.06799158   -4.77645280   14.59445645
     atom   19 type  4   force =    30.80419583   -0.97264418   26.12154785
     atom   20 type  4   force =    30.77269928    0.96869246  -26.10899234
     atom   21 type  4   force =   -30.95495054   -0.97226637   25.96001399
     atom   22 type  4   force =   -30.92616903    0.97020233  -25.94258526
     atom   23 type  5   force =     1.33338871    0.00559275   -0.01638585
     The core correction contribution to forces
     atom    1 type  1   force =    -0.00019892    0.00357436   -0.00115206
     atom    2 type  1   force =    -0.01275642   -0.00167204    0.00119193
     atom    3 type  1   force =    -0.01284065    0.00237995   -0.00174722
     atom    4 type  1   force =     0.01312467   -0.00170857    0.00105871
     atom    5 type  1   force =     0.01319989    0.00255823   -0.00180704
     atom    6 type  2   force =    -0.00034040    0.00264073    0.00226821
     atom    7 type  2   force =    -0.00040290   -0.00319266   -0.00177450
     atom    8 type  3   force =    -0.02037722    0.00013393   -0.00032956
     atom    9 type  3   force =     0.03070126    0.00010497   -0.00026831
     atom   10 type  3   force =    -0.02368896    0.00970768   -0.01503122
     atom   11 type  3   force =    -0.02509934    0.01050272    0.01558797
     atom   12 type  3   force =    -0.02330246   -0.01023603   -0.01452139
     atom   13 type  3   force =    -0.02323856   -0.00939524    0.01544606
     atom   14 type  3   force =     0.02267267    0.00875537   -0.01598003
     atom   15 type  3   force =     0.02419705    0.00933931    0.01663884
     atom   16 type  3   force =     0.02244718   -0.00908016   -0.01554499
     atom   17 type  3   force =     0.02247273   -0.00841353    0.01652574
     atom   18 type  4   force =    -0.00034294   -0.00351766    0.00286148
     atom   19 type  4   force =    -0.01019712    0.00014316   -0.00888449
     atom   20 type  4   force =    -0.01012720    0.00010814    0.00868316
     atom   21 type  4   force =     0.01042107    0.00017382   -0.00884725
     atom   22 type  4   force =     0.01033445    0.00007308    0.00861496
     atom   23 type  5   force =     0.00000000    0.00000000    0.00000000
     The Hubbard contrib.    to forces
     atom    1 type  1   force =     0.00000000    0.00000000    0.00000000
     atom    2 type  1   force =     0.00000000    0.00000000    0.00000000
     atom    3 type  1   force =     0.00000000    0.00000000    0.00000000
     atom    4 type  1   force =     0.00000000    0.00000000    0.00000000
     atom    5 type  1   force =     0.00000000    0.00000000    0.00000000
     atom    6 type  2   force =     0.00000000    0.00000000    0.00000000
     atom    7 type  2   force =     0.00000000    0.00000000    0.00000000
     atom    8 type  3   force =     0.00000000    0.00000000    0.00000000
     atom    9 type  3   force =     0.00000000    0.00000000    0.00000000
     atom   10 type  3   force =     0.00000000    0.00000000    0.00000000
     atom   11 type  3   force =     0.00000000    0.00000000    0.00000000
     atom   12 type  3   force =     0.00000000    0.00000000    0.00000000
     atom   13 type  3   force =     0.00000000    0.00000000    0.00000000
     atom   14 type  3   force =     0.00000000    0.00000000    0.00000000
     atom   15 type  3   force =     0.00000000    0.00000000    0.00000000
     atom   16 type  3   force =     0.00000000    0.00000000    0.00000000
     atom   17 type  3   force =     0.00000000    0.00000000    0.00000000
     atom   18 type  4   force =     0.00000000    0.00000000    0.00000000
     atom   19 type  4   force =     0.00000000    0.00000000    0.00000000
     atom   20 type  4   force =     0.00000000    0.00000000    0.00000000
     atom   21 type  4   force =     0.00000000    0.00000000    0.00000000
     atom   22 type  4   force =     0.00000000    0.00000000    0.00000000
     atom   23 type  5   force =     0.00000000    0.00000000    0.00000000
     The SCF correction term to forces
     atom    1 type  1   force =     0.00000000   -0.00000000    0.00000000
     atom    2 type  1   force =     0.00027924   -0.00054284    0.00485746
     atom    3 type  1   force =     0.00027077    0.00033027    0.00497892
     atom    4 type  1   force =     0.00184843    0.00350325    0.00493286
     atom    5 type  1   force =     0.00171480   -0.00362255    0.00491280
     atom    6 type  2   force =     0.00427068    0.00219586    0.00524345
     atom    7 type  2   force =     0.00409643    0.00220895    0.00504514
     atom    8 type  3   force =    -0.00003037    0.00040273    0.00321854
     atom    9 type  3   force =     0.01761225    0.00012363    0.00325881
     atom   10 type  3   force =     0.00103705    0.00349773   -0.00007462
     atom   11 type  3   force =     0.00026813   -0.00259299   -0.00101955
     atom   12 type  3   force =     0.00052237   -0.00313781    0.00014212
     atom   13 type  3   force =     0.00036195    0.00297917   -0.00140183
     atom   14 type  3   force =    -0.00009705    0.00596596    0.00180439
     atom   15 type  3   force =     0.00076103   -0.00074639   -0.00284606
     atom   16 type  3   force =     0.00013048   -0.00513486    0.00211355
     atom   17 type  3   force =     0.00079767    0.00089423   -0.00317140
     atom   18 type  4   force =     0.00383936   -0.00252083    0.00544286
     atom   19 type  4   force =     0.00217869   -0.00007816    0.00027106
     atom   20 type  4   force =    -0.00121756   -0.00013010   -0.00076982
     atom   21 type  4   force =    -0.00005145   -0.00036858    0.00330982
     atom   22 type  4   force =     0.00347579   -0.00008112   -0.00368870
     atom   23 type  5   force =    -0.00244463    0.00004291    0.00069311

     Total force =     0.543500     Total SCF correction =     0.028138

     Entering Dynamics:    iteration =    15
                           time      =   0.0030 pico-seconds

ATOMIC_POSITIONS (angstrom)
Hf            2.6699999570        2.8271230292        6.6039642186    0   0   0
Hf            1.2522019875        1.2861865512        5.0584526034
Hf            1.2547064823        7.3898854295        5.0880913280
Hf            4.0878035736        1.2862159853        5.0584487583
Hf            4.0852988784        7.3898563391        5.0880940598
Nb            2.6700348619        2.7967315868        3.5156318690
Nb            2.6700327966        5.8765554099        6.6349642175
Ta            1.2085970239        4.3409507044        5.0711036215
Ta            4.0579864577        4.3411927295        5.0708093117
Ta            1.3070901673        1.3139281485        2.0584046542
Ta            1.3026358189        1.3081608301        8.0949387243
Ta            1.3038805398        7.3760551459        2.0458872641
Ta            1.3075765271        7.3652736507        8.0863735387
Ta            4.0329005702        1.3139466911        2.0584110051
Ta            4.0373601842        1.3081838694        8.0949277012
Ta            4.0361160923        7.3760335533        2.0458984984
Ta            4.0324129497        7.3652539583        8.0863664442
Zr            2.6700228171        5.8666001115        3.5271978211
Zr            1.2421004047        4.3220174954        1.9985373633
Zr            1.2386036265        4.3541967205        8.1512403846
Zr            4.0979046018        4.3220100835        1.9985593376
Zr            4.1014021102        4.3542024302        8.1512143765
H             7.5048150417        4.3175877835        5.0989191608

     kinetic energy (Ekin) =          18.23173090 Ry
     temperature           =       87229.17088081 K
     Ekin + Etot (const)   =       -2924.80904349 Ry

     The maximum number of steps has been reached.

     End of molecular dynamics calculation

     diffusion coefficients :
     atom     1   D =       0.00000000 cm^2/s
     atom     2   D =       0.00000000 cm^2/s
     atom     3   D =       0.00000000 cm^2/s
     atom     4   D =       0.00000000 cm^2/s
     atom     5   D =       0.00000000 cm^2/s
     atom     6   D =       0.00000000 cm^2/s
     atom     7   D =       0.00000000 cm^2/s
     atom     8   D =       0.00000000 cm^2/s
     atom     9   D =       0.00002886 cm^2/s
     atom    10   D =       0.00000000 cm^2/s
     atom    11   D =       0.00000000 cm^2/s
     atom    12   D =       0.00000000 cm^2/s
     atom    13   D =       0.00000000 cm^2/s
     atom    14   D =       0.00000000 cm^2/s
     atom    15   D =       0.00000000 cm^2/s
     atom    16   D =       0.00000000 cm^2/s
     atom    17   D =       0.00000000 cm^2/s
     atom    18   D =       0.00000000 cm^2/s
     atom    19   D =       0.00000003 cm^2/s
     atom    20   D =       0.00000003 cm^2/s
     atom    21   D =       0.00000003 cm^2/s
     atom    22   D =       0.00000003 cm^2/s
     atom    23   D =       0.01921498 cm^2/s

     < D > =       0.00087473 cm^2/s

     Writing all to output data dir outdir/pwscf.save/

     General routines

     Parallel routines

   This run was terminated on:  21:20: 0   6Jun2023

   JOB DONE.