     Program PWSCF v.7.2 starts on  6Jun2023 at  0:50:47

     Reading input from md_Hf5Nb2Ta10Zr5H_10steps_100eVrelaxed_slab.in
Warning: card &CELL ignored
Warning: card / ignored

     Current dimensions of program PWSCF are:
     Max number of different atomic species (ntypx) = 10
     Max number of k-points (npk) =  40000
     Max angular momentum in pseudopotentials (lmaxx) =  4

     File outdir/pwscf.md deleted, as requested

     gamma-point specific algorithms are used

     R & G space division:  proc/nbgrp/npool/nimage =      12
     Subspace diagonalization in iterative solution of the eigenvalue problem:
     one sub-group per band group will be used

     Using Slab Decomposition

     bravais-lattice index     =            0
     lattice parameter (alat)  =      15.7603  a.u.
     unit-cell volume          =    4958.3580 (a.u.)^3
     number of atoms/cell      =           23
     number of atomic types    =            5
     number of electrons       =       277.00
     number of Kohn-Sham states=          167
     kinetic-energy cutoff     =     120.0000  Ry
     charge density cutoff     =     480.0000  Ry
     scf convergence threshold =      1.0E-03
     mixing beta               =       0.7000
     number of iterations used =            8  TF        mixing
     energy convergence thresh.=      0.0E+00
     force convergence thresh. =      0.0E+00
     Exchange-correlation=  SLA  PW   PBX  PBC
                           (   1   4   3   4   0   0   0)
     nstep                     =           10

     celldm(1)=  15.760315  celldm(2)=   0.000000  celldm(3)=   0.000000
     celldm(4)=   0.000000  celldm(5)=   0.000000  celldm(6)=   0.000000

     crystal axes: (cart. coord. in units of alat)
               a(1) = (   1.000000   0.000000   0.000000 )
               a(2) = (   0.000000   1.040767   0.000000 )
               a(3) = (   0.000000   0.000000   1.216997 )

     reciprocal axes: (cart. coord. in units 2 pi/alat)
               b(1) = (  1.000000  0.000000  0.000000 )
               b(2) = (  0.000000  0.960830  0.000000 )
               b(3) = (  0.000000  0.000000  0.821695 )

     PseudoPot. # 1 for Hf read from file:
     q-e/pseudo/hf_pbe_v1.uspp.F.UPF
     MD5 check sum: 8ee9378dfe14276e333edf04c5e4aa26
     Pseudo is Ultrasoft + core correction, Zval = 12.0
     Generated by new atomic code, or converted to UPF format
     Using radial grid of  921 points,  8 beta functions with:
                l(1) =   0
                l(2) =   0
                l(3) =   0
                l(4) =   1
                l(5) =   1
                l(6) =   2
                l(7) =   2
                l(8) =   3
     Q(r) pseudized with  6 coefficients,  rinner =    1.200   1.200   1.200
                                                       1.200   1.200   1.200
                                                       1.200

     PseudoPot. # 2 for Nb read from file:
     q-e/pseudo/nb_pbe_v1.uspp.F.UPF
     MD5 check sum: 573aab8a2fa660278ed4a62cd769473f
     Pseudo is Ultrasoft + core correction, Zval = 13.0
     Generated by new atomic code, or converted to UPF format
     Using radial grid of  887 points,  6 beta functions with:
                l(1) =   0
                l(2) =   0
                l(3) =   1
                l(4) =   1
                l(5) =   2
                l(6) =   2
     Q(r) pseudized with  6 coefficients,  rinner =    1.000   1.000   1.000
                                                       1.000   1.000

     PseudoPot. # 3 for Ta read from file:
     q-e/pseudo/ta_pbe_v1.uspp.F.UPF
     MD5 check sum: f8bbe9446314a3b8ea5d9f3e3836c939
     Pseudo is Ultrasoft + core correction, Zval = 13.0
     Generated by new atomic code, or converted to UPF format
     Using radial grid of  921 points,  7 beta functions with:
                l(1) =   0
                l(2) =   0
                l(3) =   1
                l(4) =   1
                l(5) =   2
                l(6) =   2
                l(7) =   3
     Q(r) pseudized with  6 coefficients,  rinner =    1.300   1.300   1.300
                                                       1.300   1.300   1.300
                                                       1.300

     PseudoPot. # 4 for Zr read from file:
     q-e/pseudo/zr_pbe_v1.uspp.F.UPF
     MD5 check sum: 5db81b1e868ab7776c4564c113de050b
     Pseudo is Ultrasoft + core correction, Zval = 12.0
     Generated by new atomic code, or converted to UPF format
     Using radial grid of  887 points,  6 beta functions with:
                l(1) =   0
                l(2) =   0
                l(3) =   1
                l(4) =   1
                l(5) =   2
                l(6) =   2
     Q(r) pseudized with  6 coefficients,  rinner =    1.200   1.200   1.200
                                                       1.200   1.200

     PseudoPot. # 5 for H  read from file:
     q-e/pseudo/h_pbe_v1.4.uspp.F.UPF
     MD5 check sum: 761ae9a214b05c3daf00ab9f6b793d6f
     Pseudo is Ultrasoft, Zval =  1.0
     Generated by new atomic code, or converted to UPF format
     Using radial grid of  615 points,  2 beta functions with:
                l(1) =   0
                l(2) =   0
     Q(r) pseudized with  8 coefficients,  rinner =    0.700

     atomic species   valence    mass     pseudopotential
        Hf            12.00   178.49000     Hf( 1.00)
        Nb            13.00    92.90637     Nb( 1.00)
        Ta            13.00   180.94788     Ta( 1.00)
        Zr            12.00    91.22400     Zr( 1.00)
        H              1.00     2.01400     H ( 1.00)

     Starting magnetic structure
     atomic species   magnetization
        Hf           0.000
        Nb           0.000
        Ta           0.000
        Zr           0.000
        H            0.000

     No symmetry found

   Cartesian axes

     site n.     atom                  positions (alat units)
         1           Hf  tau(   1) = (   0.3201439   0.3389836   0.7918423  )
         2           Hf  tau(   2) = (   0.1502387   0.1542307   0.6065307  )
         3           Hf  tau(   3) = (   0.1505380   0.8860677   0.6100801  )
         4           Hf  tau(   4) = (   0.4900491   0.1542307   0.6065307  )
         5           Hf  tau(   5) = (   0.4897498   0.8860677   0.6100801  )
         6           Nb  tau(   6) = (   0.3201439   0.3353634   0.4215328  )
         7           Nb  tau(   7) = (   0.3201439   0.7046018   0.7955633  )
         8           Ta  tau(   8) = (   0.1450088   0.5204950   0.6080487  )
         9           Ta  tau(   9) = (   0.4952790   0.5204950   0.6080487  )
        10           Ta  tau(  10) = (   0.1567449   0.1575687   0.2468560  )
        11           Ta  tau(  11) = (   0.1562096   0.1568814   0.9705731  )
        12           Ta  tau(  12) = (   0.1563561   0.8843917   0.2453522  )
        13           Ta  tau(  13) = (   0.1567999   0.8831035   0.9695447  )
        14           Ta  tau(  14) = (   0.4835429   0.1575687   0.2468560  )
        15           Ta  tau(  15) = (   0.4840781   0.1568814   0.9705731  )
        16           Ta  tau(  16) = (   0.4839317   0.8843917   0.2453522  )
        17           Ta  tau(  17) = (   0.4834879   0.8831035   0.9695447  )
        18           Zr  tau(  18) = (   0.3201439   0.7033916   0.4229477  )
        19           Zr  tau(  19) = (   0.1491408   0.5182348   0.2398082  )
        20           Zr  tau(  20) = (   0.1487273   0.5220772   0.9771889  )
        21           Zr  tau(  21) = (   0.4911469   0.5182348   0.2398082  )
        22           Zr  tau(  22) = (   0.4915605   0.5220772   0.9771889  )
        23           H   tau(  23) = (   0.6751351   0.5203837   0.6081751  )

     number of k points=     1  Gaussian smearing, width (Ry)=  0.0220
                       cart. coord. in units 2pi/alat
        k(    1) = (   0.0000000   0.0000000   0.0000000), wk =   1.0000000

     Check: negative core charge=   -0.000002
     Generating pointlists ...
     new r_m :   0.1251 (alat units)  1.9717 (a.u.) for type    1
     new r_m :   0.1229 (alat units)  1.9374 (a.u.) for type    2
     new r_m :   0.0742 (alat units)  1.1693 (a.u.) for type    3
     new r_m :   0.1245 (alat units)  1.9625 (a.u.) for type    4
     new r_m :   0.0742 (alat units)  1.1693 (a.u.) for type    5

     Initial potential from superposition of free atoms

     starting charge     266.9726, renormalised to     277.0000

     negative rho (up, down):  9.206E-01 9.206E-01
     Starting wfcs are  287 randomized atomic wfcs

     Self-consistent Calculation

     iteration #  1     ecut=   120.00 Ry     beta= 0.70
     Davidson diagonalization with overlap
     ethr =  1.00E-02,  avg # of iterations =  3.0

     negative rho (up, down):  9.825E-01 9.822E-01

     total energy              =   -2932.09787611 Ry
     estimated scf accuracy    <     291.81665252 Ry

     total magnetization       =    -0.00 Bohr mag/cell
     absolute magnetization    =     0.08 Bohr mag/cell

[...]

     Magnetic moment per site  (integrated on atomic sphere of radius R)
     atom   1 (R=0.125)  charge=  9.4607   -0.0000
     atom   2 (R=0.125)  charge=  9.0586    0.0003
     atom   3 (R=0.125)  charge=  9.0582    0.0000
     atom   4 (R=0.125)  charge=  9.0565    0.0003
     atom   5 (R=0.125)  charge=  9.0561   -0.0002
     atom   6 (R=0.123)  charge= 10.3453   -0.0000
     atom   7 (R=0.123)  charge= 10.3469   -0.0001
     atom   8 (R=0.074)  charge=  5.2336    0.0001
     atom   9 (R=0.074)  charge=  5.2523    0.0001
     atom  10 (R=0.074)  charge=  5.2165    0.0002
     atom  11 (R=0.074)  charge=  5.2160    0.0001
     atom  12 (R=0.074)  charge=  5.2167   -0.0002
     atom  13 (R=0.074)  charge=  5.2164   -0.0003
     atom  14 (R=0.074)  charge=  5.2164    0.0004
     atom  15 (R=0.074)  charge=  5.2162    0.0001
     atom  16 (R=0.074)  charge=  5.2177   -0.0005
     atom  17 (R=0.074)  charge=  5.2156   -0.0003
     atom  18 (R=0.125)  charge=  9.4559   -0.0001
     atom  19 (R=0.125)  charge=  9.0006    0.0016
     atom  20 (R=0.125)  charge=  8.9992   -0.0017
     atom  21 (R=0.125)  charge=  8.9970    0.0014
     atom  22 (R=0.125)  charge=  8.9971   -0.0014
     atom  23 (R=0.074)  charge=  0.8828    0.0000

     End of self-consistent calculation

 ------ SPIN UP ------------

          k = 0.0000 0.0000 0.0000 ( 55051 PWs)   bands (ev):

   -59.4835 -59.4792 -59.4383 -59.4341 -59.4051 -59.4005 -59.3613 -59.3568
   -59.2289 -58.7539 -53.0943 -53.0370 -52.9704 -52.9136 -51.3633 -44.9047
   -44.9022 -40.3153 -40.3042 -40.2129 -40.2093 -38.4707 -26.4831 -26.4774
   -26.3989 -26.3897 -26.3024 -26.2977 -26.1788 -26.1696 -26.0539 -26.0250
   -25.9890 -25.9612 -25.9542 -25.9266 -25.9161 -25.8665 -25.8562 -25.8353
   -25.7983 -25.6685 -25.6644 -25.6535 -25.6450 -25.5915 -25.5874 -25.5689
   -25.5657 -25.5010 -25.4764 -25.4288 -22.8717 -22.6621 -22.3480 -22.2720
   -22.0102 -21.8682 -21.8452 -21.7436 -21.6277 -21.5586 -21.5419 -21.3266
   -21.1531 -21.1059 -21.0626 -21.0112 -20.9555 -20.8982 -20.4339 -20.3630
   -20.2984 -18.8783 -18.5973 -18.5243 -18.5043 -18.2909 -18.2830 -18.2623
[...]
     8.4965   8.5227   8.6031   8.6202   8.6369   8.8316   8.8565   8.8885
     8.9224   8.9652   9.1997   9.2679   9.3700   9.4002   9.5698   9.6249
     9.6430   9.6477   9.6794   9.6964   9.7457   9.8798  10.0153  10.0441
    10.1520  10.2375  10.4065  10.4245  10.4423  10.5433  10.5767

     the Fermi energy is     8.5772 ev

!    total energy              =   -2943.08766627 Ry
     estimated scf accuracy    <       0.00028141 Ry
     smearing contrib. (-TS)   =      -0.10180101 Ry
     internal energy E=F+TS    =   -2942.98586526 Ry

     total magnetization       =    -0.00 Bohr mag/cell
     absolute magnetization    =     0.00 Bohr mag/cell

     convergence has been achieved in   5 iterations

     negative rho (up, down):  9.081E-01 9.081E-01

     Forces acting on atoms (cartesian axes, Ry/au):

     atom    1 type  1   force =    -0.00943882   -0.02500543    0.01731730
     atom    2 type  1   force =    -0.11916064   -0.01695320   -0.00636964
     atom    3 type  1   force =    -0.11780358    0.01447822   -0.00193369
     atom    4 type  1   force =     0.12057414   -0.01657482   -0.00737948
     atom    5 type  1   force =     0.11955202    0.01443521   -0.00054877
     atom    6 type  2   force =    -0.00846568   -0.01529208    0.00415576
     atom    7 type  2   force =    -0.00858821    0.01238035   -0.00119579
     atom    8 type  3   force =    -0.13312656    0.00298802   -0.00411009
     atom    9 type  3   force =     0.16069562    0.00248864   -0.00430390
     atom   10 type  3   force =    -0.02353353   -0.03070067   -0.05915364
     atom   11 type  3   force =    -0.02162273   -0.03481853    0.05968582
     atom   12 type  3   force =    -0.01852595    0.03634810   -0.05487070
     atom   13 type  3   force =    -0.01893706    0.02843275    0.06232759
     atom   14 type  3   force =     0.02467768   -0.02951112   -0.05682615
     atom   15 type  3   force =     0.02236040   -0.03217353    0.05648223
     atom   16 type  3   force =     0.01920853    0.03410061   -0.05150367
     atom   17 type  3   force =     0.01977302    0.02715891    0.06000176
     atom   18 type  4   force =    -0.00988021    0.02694718   -0.02037117
     atom   19 type  4   force =    -0.13075133   -0.00422638   -0.11319075
     atom   20 type  4   force =    -0.13232157    0.00507133    0.11706904
     atom   21 type  4   force =     0.13311169   -0.00530766   -0.11619616
     atom   22 type  4   force =     0.13502752    0.00594201    0.11945366
     atom   23 type  5   force =    -0.00282473   -0.00020789    0.00146045
     The non-local contrib.  to forces
     atom    1 type  1   force =    -0.00822944   -0.02299942    0.03740067
     atom    2 type  1   force =    -0.24745776   -0.16373900    0.01588883
     atom    3 type  1   force =    -0.24175559    0.15902283   -0.03024655
     atom    4 type  1   force =     0.26187057   -0.15813678    0.01491620
     atom    5 type  1   force =     0.25656691    0.15365791   -0.02935730
     atom    6 type  2   force =    -0.00791073   -0.06133432   -0.06728792
     atom    7 type  2   force =    -0.00902363    0.07224856    0.05988803
     atom    8 type  3   force =    -0.30340975   -0.00051876   -0.00467615
     atom    9 type  3   force =     0.00722324    0.00082981   -0.00624093
     atom   10 type  3   force =    -0.21384698    0.00734865   -0.21144592
     atom   11 type  3   force =    -0.21886338    0.00981158    0.20226788
     atom   12 type  3   force =    -0.19899317   -0.02140396   -0.18514072
     atom   13 type  3   force =    -0.21086916   -0.00878257    0.21123761
     atom   14 type  3   force =     0.21602946    0.00529289   -0.21386428
     atom   15 type  3   force =     0.22169166    0.01071268    0.20364539
     atom   16 type  3   force =     0.20071693   -0.02133238   -0.18713378
     atom   17 type  3   force =     0.21216566   -0.00721193    0.21375862
     atom   18 type  4   force =    -0.01010802    0.06963630   -0.06875397
     atom   19 type  4   force =     0.06857118    0.00740310    0.06020965
     atom   20 type  4   force =     0.06447665   -0.00966158   -0.05400267
     atom   21 type  4   force =    -0.06549015    0.00698893    0.06758346
     atom   22 type  4   force =    -0.06220072   -0.00926826   -0.06168647
     atom   23 type  5   force =    -0.04834655    0.00008769   -0.00012569
     The ionic contribution  to forces
     atom    1 type  1   force =    -0.15681787   -4.65317535   14.43734843
     atom    2 type  1   force =   -34.43046152   -6.24362720    0.77937439
     atom    3 type  1   force =   -34.41448737    6.22985474   -0.70915008
     atom    4 type  1   force =    34.29225285   -6.40234495    0.77778316
     atom    5 type  1   force =    34.27633467    6.38689535   -0.70915384
     atom    6 type  2   force =    -0.16452883   -3.60972735  -14.36726600
     atom    7 type  2   force =    -0.16521847    3.64864542   14.39882139
     atom    8 type  3   force =   -45.94275072    0.07545096   -0.07043526
     atom    9 type  3   force =    44.35907548    0.08000124   -0.07755035
     atom   10 type  3   force =   -31.05386389   -2.14185862  -23.62032314
     atom   11 type  3   force =   -30.12202244   -0.88908907   22.62256684
     atom   12 type  3   force =   -30.24587140    0.84233339  -22.67640391
     atom   13 type  3   force =   -31.03016414    2.23058853   23.60240295
     atom   14 type  3   force =    30.99125849   -2.16386974  -23.65756426
     atom   15 type  3   force =    30.06078886   -0.91189060   22.66026324
     atom   16 type  3   force =    30.18452143    0.86297123  -22.71258523
     atom   17 type  3   force =    30.96667274    2.25323377   23.64038977
     atom   18 type  4   force =    -0.15456686    4.40229469  -14.28555442
     atom   19 type  4   force =   -30.97730668    0.95740033  -26.04007483
     atom   20 type  4   force =   -30.94798358   -0.95547732   26.01923979
     atom   21 type  4   force =    30.84898653    0.95823126  -26.20746019
     atom   22 type  4   force =    30.81939499   -0.95497481   26.18896732
     atom   23 type  5   force =     3.00675774   -0.00186590    0.00636424
     The local contribution  to forces
     atom    1 type  1   force =     0.15123136    4.64789377  -14.45713248
     atom    2 type  1   force =    34.57437338    6.39059344   -0.81772105
     atom    3 type  1   force =    34.55416722   -6.37479456    0.72303201
     atom    4 type  1   force =   -34.44941312    6.54258589   -0.81622227
     atom    5 type  1   force =   -34.42951551   -6.52476571    0.72489567
     atom    6 type  2   force =     0.15899690    3.64396682   14.41470190
     atom    7 type  2   force =     0.16185105   -3.70460341  -14.45809511
     atom    8 type  3   force =    46.14386891   -0.07287472    0.05775818
     atom    9 type  3   force =   -44.21397918   -0.07913103    0.06663502
     atom   10 type  3   force =    31.26737046    2.09042880   23.78696392
     atom   11 type  3   force =    30.34642152    0.84044240  -22.77481838
     atom   12 type  3   force =    30.44927605   -0.77132957   22.82118173
     atom   13 type  3   force =    31.24800276   -2.18949203  -23.76015081
     atom   14 type  3   force =   -31.20970344    2.11598705   23.82772828
     atom   15 type  3   force =   -30.29002550    0.86332752  -22.81549186
     atom   16 type  3   force =   -30.39313236   -0.79288106   22.86052147
     atom   17 type  3   force =   -31.18741445   -2.21441729  -23.80182928
     atom   18 type  4   force =     0.14920976   -4.43274371   14.31086596
     atom   19 type  4   force =    30.78878674   -0.96910605   25.87076682
     atom   20 type  4   force =    30.77003020    0.96937680  -25.84793446
     atom   21 type  4   force =   -30.66229138   -0.97121445   26.02553940
     atom   22 type  4   force =   -30.64167671    0.96983652  -26.00563015
     atom   23 type  5   force =    -2.95994289    0.00156561   -0.00736905
     The core correction contribution to forces
     atom    1 type  1   force =     0.00080835    0.00276172   -0.00090245
     atom    2 type  1   force =    -0.01241909   -0.00143384    0.00095561
     atom    3 type  1   force =    -0.01260317    0.00227485   -0.00162841
     atom    4 type  1   force =     0.01254804   -0.00183735    0.00108159
     atom    5 type  1   force =     0.01266063    0.00264732   -0.00181550
     atom    6 type  2   force =     0.00018261    0.00264285    0.00247823
     atom    7 type  2   force =     0.00023186   -0.00322735   -0.00196633
     atom    8 type  3   force =    -0.03358186    0.00022517   -0.00040380
     atom    9 type  3   force =     0.00779968    0.00009777   -0.00035396
     atom   10 type  3   force =    -0.02230219    0.00869011   -0.01630690
     atom   11 type  3   force =    -0.02402813    0.00911559    0.01708183
     atom   12 type  3   force =    -0.02220854   -0.00896958   -0.01590223
     atom   13 type  3   force =    -0.02229067   -0.00830773    0.01686149
     atom   14 type  3   force =     0.02346568    0.00999759   -0.01460860
     atom   15 type  3   force =     0.02482575    0.01103202    0.01524002
     atom   16 type  3   force =     0.02296409   -0.01086906   -0.01398728
     atom   17 type  3   force =     0.02314386   -0.00976333    0.01509175
     atom   18 type  4   force =     0.00038047   -0.00352381    0.00302112
     atom   19 type  4   force =    -0.01020247    0.00017051   -0.00882205
     atom   20 type  4   force =    -0.01006307    0.00011584    0.00859686
     atom   21 type  4   force =     0.01027893    0.00019566   -0.00916404
     atom   22 type  4   force =     0.01018879    0.00009194    0.00893812
     atom   23 type  5   force =     0.00000000    0.00000000    0.00000000
     The Hubbard contrib.    to forces
     atom    1 type  1   force =     0.00000000    0.00000000    0.00000000
     atom    2 type  1   force =     0.00000000    0.00000000    0.00000000
     atom    3 type  1   force =     0.00000000    0.00000000    0.00000000
     atom    4 type  1   force =     0.00000000    0.00000000    0.00000000
     atom    5 type  1   force =     0.00000000    0.00000000    0.00000000
     atom    6 type  2   force =     0.00000000    0.00000000    0.00000000
     atom    7 type  2   force =     0.00000000    0.00000000    0.00000000
     atom    8 type  3   force =     0.00000000    0.00000000    0.00000000
     atom    9 type  3   force =     0.00000000    0.00000000    0.00000000
     atom   10 type  3   force =     0.00000000    0.00000000    0.00000000
     atom   11 type  3   force =     0.00000000    0.00000000    0.00000000
     atom   12 type  3   force =     0.00000000    0.00000000    0.00000000
     atom   13 type  3   force =     0.00000000    0.00000000    0.00000000
     atom   14 type  3   force =     0.00000000    0.00000000    0.00000000
     atom   15 type  3   force =     0.00000000    0.00000000    0.00000000
     atom   16 type  3   force =     0.00000000    0.00000000    0.00000000
     atom   17 type  3   force =     0.00000000    0.00000000    0.00000000
     atom   18 type  4   force =     0.00000000    0.00000000    0.00000000
     atom   19 type  4   force =     0.00000000    0.00000000    0.00000000
     atom   20 type  4   force =     0.00000000    0.00000000    0.00000000
     atom   21 type  4   force =     0.00000000    0.00000000    0.00000000
     atom   22 type  4   force =     0.00000000    0.00000000    0.00000000
     atom   23 type  5   force =     0.00000000    0.00000000    0.00000000
     The SCF correction term to forces
     atom    1 type  1   force =     0.00000000    0.00000000   -0.00000000
     atom    2 type  1   force =    -0.00000000    0.00000000    0.00000000
     atom    3 type  1   force =    -0.00000000   -0.00000000    0.00000000
     atom    4 type  1   force =     0.00000000    0.00000000    0.00000000
     atom    5 type  1   force =     0.00000000   -0.00000000    0.00000000
     atom    6 type  2   force =     0.00000000    0.00000000    0.00000000
     atom    7 type  2   force =     0.00000000   -0.00000000   -0.00000000
     atom    8 type  3   force =     0.00000000    0.00000000    0.00000000
     atom    9 type  3   force =     0.00000000    0.00000000    0.00000000
     atom   10 type  3   force =    -0.00000000    0.00000000    0.00000000
     atom   11 type  3   force =    -0.00000000   -0.00000000   -0.00000000
     atom   12 type  3   force =    -0.00000000   -0.00000000    0.00000000
     atom   13 type  3   force =    -0.00000000    0.00000000   -0.00000000
     atom   14 type  3   force =     0.00350166    0.00312878    0.00049707
     atom   15 type  3   force =     0.00495379   -0.00530745   -0.00816022
     atom   16 type  3   force =     0.00401261   -0.00374043    0.00069549
     atom   17 type  3   force =     0.00507937    0.00536538   -0.00839476
     atom   18 type  4   force =     0.00507859   -0.00866859    0.01906449
     atom   19 type  4   force =    -0.00072593   -0.00004657    0.00374401
     atom   20 type  4   force =    -0.00890762    0.00076529   -0.00981614
     atom   21 type  4   force =     0.00150192    0.00053864    0.00631955
     atom   22 type  4   force =     0.00919532    0.00030432   -0.01212081
     atom   23 type  5   force =    -0.00141888    0.00005242    0.00160530

     Total force =     0.380194     Total SCF correction =     0.035087

     Entering Dynamics:    iteration =    10
                           time      =   0.0051 pico-seconds

ATOMIC_POSITIONS (angstrom)
Hf            2.6699999570        2.8271230292        6.6039642186    0   0   0
Hf            1.2529906802        1.2862841814        5.0584662261    0   0   0
Hf            1.2554868986        7.3898042948        5.0880677674    0   0   0
Hf            4.0870092338        1.2862841814        5.0584662261    0   0   0
Hf            4.0845130154        7.3898042948        5.0880677674    0   0   0
Nb            2.6699999570        2.7969306055        3.5155832167    0   0   0
Nb            2.6699999570        5.8763786763        6.6349979432    0   0   0
Ta            1.2093730560        4.3409278516        5.0711258323    0   0   0
Ta            4.1306268580        4.3409278516        5.0711258323    0   0   0
Ta            1.3072526841        1.3141225894        2.0587791101    0   0   0
Ta            1.3027883142        1.3083911360        8.0945792024    0   0   0
Ta            1.3040096221        7.3758261241        2.0462371798    0   0   0
Ta            1.3077107984        7.3650829484        8.0860022208    0   0   0
Ta            4.0331898481        1.3136386109        2.0577684195
Ta            4.0376336474        1.3078322036        8.0955200325
Ta            4.0363472181        7.3763895945        2.0453165071
Ta            4.0326493036        7.3655545488        8.0869990329
Zr            2.6698537597        5.8672820154        3.5267426800
Zr            1.2390562991        4.3219238803        1.9960029233
Zr            1.2354624064        4.3543117799        8.1538078558
Zr            4.1009229750        4.3218918024        1.9959205692
Zr            4.1045196856        4.3543419466        8.1538758652
H             6.2927720263        4.3360938800        5.0794815893

     kinetic energy (Ekin) =           1.93472655 Ry
     temperature           =       20364.61083966 K
     Ekin + Etot (const)   =       -2941.15293972 Ry

     The maximum number of steps has been reached.

     End of molecular dynamics calculation

     diffusion coefficients :
     atom     1   D =       0.00000000 cm^2/s
     atom     2   D =       0.00000000 cm^2/s
     atom     3   D =       0.00000000 cm^2/s
     atom     4   D =       0.00000000 cm^2/s
     atom     5   D =       0.00000000 cm^2/s
     atom     6   D =       0.00000000 cm^2/s
     atom     7   D =       0.00000000 cm^2/s
     atom     8   D =       0.00000000 cm^2/s
     atom     9   D =       0.00000000 cm^2/s
     atom    10   D =       0.00000000 cm^2/s
     atom    11   D =       0.00000000 cm^2/s
     atom    12   D =       0.00000000 cm^2/s
     atom    13   D =       0.00000000 cm^2/s
     atom    14   D =       0.00000000 cm^2/s
     atom    15   D =       0.00000000 cm^2/s
     atom    16   D =       0.00000000 cm^2/s
     atom    17   D =       0.00000000 cm^2/s
     atom    18   D =       0.00000000 cm^2/s
     atom    19   D =       0.00000013 cm^2/s
     atom    20   D =       0.00000013 cm^2/s
     atom    21   D =       0.00000013 cm^2/s
     atom    22   D =       0.00000013 cm^2/s
     atom    23   D =       0.00143876 cm^2/s

     < D > =       0.00014393 cm^2/s

     Writing all to output data dir outdir/pwscf.save/

     General routines

     Parallel routines

   This run was terminated on:   1:36:13   6Jun2023

   JOB DONE.