     Program PWSCF v.7.2 starts on 14May2023 at  3:47:44

     Reading input from D_Ta_MD.in
Warning: card &CELL ignored
Warning: card / ignored
Warning: card TA 0.0 0.0 0.0 ignored
Warning: card H 0.0 0.0 0.0346437183565424 ignored

     Current dimensions of program PWSCF are:
     Max number of different atomic species (ntypx) = 10
     Max number of k-points (npk) =  40000
     Max angular momentum in pseudopotentials (lmaxx) =  4

     File outdir/pwscf.md deleted, as requested

     R & G space division:  proc/nbgrp/npool/nimage =      12
     Subspace diagonalization in iterative solution of the eigenvalue problem:
     a serial algorithm will be used

     Using Slab Decomposition

     bravais-lattice index     =            0
     lattice parameter (alat)  =      18.7412  a.u.
     unit-cell volume          =   10483.6616 (a.u.)^3
     number of atoms/cell      =           10
     number of atomic types    =            2
     number of electrons       =       118.00
     number of Kohn-Sham states=           71
     kinetic-energy cutoff     =      30.0000  Ry
     charge density cutoff     =     120.0000  Ry
     scf convergence threshold =      1.0E-06
     mixing beta               =       0.7000
     number of iterations used =            8  plain     mixing
     energy convergence thresh.=      0.0E+00
     force convergence thresh. =      0.0E+00
     Exchange-correlation=  SLA  PW   PBX  PBC
                           (   1   4   3   4   0   0   0)
     nstep                     =            1

     celldm(1)=  18.741170  celldm(2)=   0.000000  celldm(3)=   0.000000
     celldm(4)=   0.000000  celldm(5)=   0.000000  celldm(6)=   0.000000

     crystal axes: (cart. coord. in units of alat)
               a(1) = (   1.000000   0.000000   0.000000 )
               a(2) = (   0.500000   0.707107   0.000000 )
               a(3) = (   0.000000   0.000000   2.252360 )

     reciprocal axes: (cart. coord. in units 2 pi/alat)
               b(1) = (  1.000000 -0.707107  0.000000 )
               b(2) = (  0.000000  1.414213  0.000000 )
               b(3) = (  0.000000  0.000000  0.443979 )

     PseudoPot. # 1 for Ta read from file:
     q-e/pseudo/ta_pbe_v1.uspp.F.UPF
     MD5 check sum: f8bbe9446314a3b8ea5d9f3e3836c939
     Pseudo is Ultrasoft + core correction, Zval = 13.0
     Generated by new atomic code, or converted to UPF format
     Using radial grid of  921 points,  7 beta functions with:
                l(1) =   0
                l(2) =   0
                l(3) =   1
                l(4) =   1
                l(5) =   2
                l(6) =   2
                l(7) =   3
     Q(r) pseudized with  6 coefficients,  rinner =    1.300   1.300   1.300
                                                       1.300   1.300   1.300
                                                       1.300

     PseudoPot. # 2 for H  read from file:
     q-e/pseudo/h_pbe_v1.4.uspp.F.UPF
     MD5 check sum: 761ae9a214b05c3daf00ab9f6b793d6f
     Pseudo is Ultrasoft, Zval =  1.0
     Generated by new atomic code, or converted to UPF format
     Using radial grid of  615 points,  2 beta functions with:
                l(1) =   0
                l(2) =   0
     Q(r) pseudized with  8 coefficients,  rinner =    0.700

     atomic species   valence    mass     pseudopotential
        Ta            13.00   180.94788     Ta( 1.00)
        H              1.00     2.01400     H ( 1.00)

     No symmetry found

   Cartesian axes

     site n.     atom                  positions (alat units)
         1           Ta  tau(   1) = (   0.0000000   0.2357023   1.0083288  )
         2           Ta  tau(   2) = (   0.3333333   0.2357023   1.0083288  )
         3           Ta  tau(   3) = (   0.6666667   0.2357023   1.0083288  )
         4           Ta  tau(   4) = (   0.1666667   0.4714045   1.0083288  )
         5           Ta  tau(   5) = (   0.5000000   0.4714045   1.0083288  )
         6           Ta  tau(   6) = (   0.8333333   0.4714045   1.0083288  )
         7           Ta  tau(   7) = (   0.3333333   0.7071068   1.0083288  )
         8           Ta  tau(   8) = (   0.6666667   0.7071068   1.0083288  )
         9           Ta  tau(   9) = (   1.0000000   0.7071068   1.0083288  )
        10           H   tau(  10) = (   0.5041644   0.4033315   0.5041644  )

     number of k points=     1  Gaussian smearing, width (Ry)=  0.0100
                       cart. coord. in units 2pi/alat
        k(    1) = (   0.0000000   0.0000000   0.0000000), wk =   2.0000000

     Check: negative core charge=   -0.000002

     Initial potential from superposition of free atoms

     starting charge     117.9900, renormalised to     118.0000

     negative rho (up, down):  8.768E-01 0.000E+00
     Starting wfcs are  118 randomized atomic wfcs

     Self-consistent Calculation

     iteration #  1     ecut=    30.00 Ry     beta= 0.70
     Davidson diagonalization with overlap
     ethr =  1.00E-02,  avg # of iterations =  2.0

     Threshold (ethr) on eigenvalues was too large:
     Diagonalizing with lowered threshold

     Davidson diagonalization with overlap
     ethr =  9.55E-04,  avg # of iterations =  1.0

     negative rho (up, down):  8.697E-01 0.000E+00

     total energy              =   -1275.28263229 Ry
     estimated scf accuracy    <       1.16701120 Ry

[...]

     total energy              =   -1275.76157985 Ry
     estimated scf accuracy    <       0.00000858 Ry

     iteration # 30     ecut=    30.00 Ry     beta= 0.70
     Davidson diagonalization with overlap
     ethr =  1.95E-09,  avg # of iterations =  5.0

[...]

     End of self-consistent calculation

          k = 0.0000 0.0000 0.0000 ( 29075 PWs)   bands (ev):

   -70.9016 -70.8621 -70.8620 -70.8592 -70.8590 -70.8311 -70.8298 -70.8243
   -70.8231 -37.5326 -37.4633 -37.4622 -37.4585 -37.4584 -37.4252 -37.4248
   -37.4241 -37.4236 -37.4152 -37.4128 -37.4006 -37.3998 -37.3719 -37.3715
   -37.3641 -37.3637 -37.3579 -37.3576 -37.2247 -37.2244 -36.9292 -36.7904
   -36.7902 -36.7871 -36.7865 -36.6466  -8.2823  -5.9018  -5.9017  -5.9005
    -5.8995  -5.2496  -5.2488  -3.8405  -3.8398  -3.6390  -3.6049  -3.6039
    -3.6038  -3.6031  -3.4309  -3.4301  -3.2531  -2.8790  -2.8668  -2.8659
    -2.8650  -2.7414  -2.7385  -2.7331  -2.6786  -2.6784  -2.2311  -2.2297
    -2.0029  -1.9103  -1.9098  -1.6526  -1.6525  -1.6523  -1.6505

     the Fermi energy is    -2.7257 ev

!    total energy              =   -1275.76157952 Ry
     estimated scf accuracy    <       0.00000097 Ry
     smearing contrib. (-TS)   =      -0.03422126 Ry
     internal energy E=F+TS    =   -1275.72735826 Ry

     convergence has been achieved in  30 iterations

     negative rho (up, down):  8.702E-01 0.000E+00

     Forces acting on atoms (cartesian axes, Ry/au):

     atom    1 type  1   force =    -0.00018444    0.00006452    0.00008815
     atom    2 type  1   force =    -0.00027075   -0.00038303   -0.00078508
     atom    3 type  1   force =     0.00045280   -0.00024121   -0.00084505
     atom    4 type  1   force =    -0.00027047    0.00027112   -0.00013425
     atom    5 type  1   force =     0.00018627    0.00009578   -0.00261675
     atom    6 type  1   force =     0.00008780    0.00016145   -0.00016517
     atom    7 type  1   force =    -0.00071771    0.00022895    0.00024825
     atom    8 type  1   force =     0.00074448   -0.00002007    0.00021412
     atom    9 type  1   force =    -0.00002966   -0.00017607    0.00021300
     atom   10 type  2   force =     0.00000167   -0.00000144    0.00378278
     The non-local contrib.  to forces
     atom    1 type  1   force =    -0.00014942    0.00096879   -0.00383963
     atom    2 type  1   force =     0.00115949   -0.00079700   -0.00589544
     atom    3 type  1   force =    -0.00099892   -0.00057953   -0.00597049
     atom    4 type  1   force =    -0.00137276    0.00047191   -0.00402124
     atom    5 type  1   force =     0.00028936   -0.00037637   -0.00628096
     atom    6 type  1   force =     0.00108979    0.00042932   -0.00411438
     atom    7 type  1   force =    -0.00098202    0.00012722   -0.00500122
     atom    8 type  1   force =     0.00105344   -0.00015232   -0.00504448
     atom    9 type  1   force =    -0.00007013   -0.00000455   -0.00432870
     atom   10 type  2   force =     0.00000346    0.00000632    0.00103076
     The ionic contribution  to forces
     atom    1 type  1   force =     0.00072547    0.00682194    0.32766438
     atom    2 type  1   force =    -0.03028836   -0.02520940    0.38155230
     atom    3 type  1   force =     0.02958548   -0.02628189    0.38353324
     atom    4 type  1   force =    -0.03374092    0.00301203    0.34668575
     atom    5 type  1   force =    -0.00129376    0.01955678    0.43188448
     atom    6 type  1   force =     0.03499885    0.00345064    0.34878531
     atom    7 type  1   force =    -0.00946395    0.02020080    0.35441937
     atom    8 type  1   force =     0.00930276    0.02156078    0.35503861
     atom    9 type  1   force =     0.00016619   -0.02300027    0.34028117
     atom   10 type  2   force =     0.00000824   -0.00011140   -3.26984459
     The local contribution  to forces
     atom    1 type  1   force =    -0.00173110   -0.00754075   -0.32457753
     atom    2 type  1   force =     0.03026966    0.02486544   -0.37691926
     atom    3 type  1   force =    -0.02855629    0.02661078   -0.37885677
     atom    4 type  1   force =     0.03404571   -0.00232102   -0.34337735
     atom    5 type  1   force =     0.00224226   -0.01892285   -0.42854240
     atom    6 type  1   force =    -0.03625196   -0.00359424   -0.34543564
     atom    7 type  1   force =     0.00973731   -0.01978181   -0.34991843
     atom    8 type  1   force =    -0.00968863   -0.02258169   -0.35056268
     atom    9 type  1   force =    -0.00005963    0.02307627   -0.33659369
     atom   10 type  2   force =    -0.00000170    0.00010222    3.27247914
     The core correction contribution to forces
     atom    1 type  1   force =    -0.00000904   -0.00026487   -0.00020539
     atom    2 type  1   force =    -0.00028269   -0.00035871   -0.00048277
     atom    3 type  1   force =     0.00029094   -0.00036522   -0.00049653
     atom    4 type  1   force =     0.00003148    0.00013748   -0.00035072
     atom    5 type  1   force =    -0.00001348    0.00023551   -0.00054762
     atom    6 type  1   force =    -0.00001824    0.00014047   -0.00036370
     atom    7 type  1   force =    -0.00024202    0.00019142   -0.00026743
     atom    8 type  1   force =     0.00025807    0.00020822   -0.00027266
     atom    9 type  1   force =    -0.00001619    0.00006891   -0.00017651
     atom   10 type  2   force =     0.00000000    0.00000000    0.00000000
     The Hubbard contrib.    to forces
     atom    1 type  1   force =     0.00000000    0.00000000    0.00000000
     atom    2 type  1   force =     0.00000000    0.00000000    0.00000000
     atom    3 type  1   force =     0.00000000    0.00000000    0.00000000
     atom    4 type  1   force =     0.00000000    0.00000000    0.00000000
     atom    5 type  1   force =     0.00000000    0.00000000    0.00000000
     atom    6 type  1   force =     0.00000000    0.00000000    0.00000000
     atom    7 type  1   force =     0.00000000    0.00000000    0.00000000
     atom    8 type  1   force =     0.00000000    0.00000000    0.00000000
     atom    9 type  1   force =     0.00000000    0.00000000    0.00000000
     atom   10 type  2   force =     0.00000000    0.00000000    0.00000000
     The SCF correction term to forces
     atom    1 type  1   force =     0.00098171    0.00007892    0.00093395
     atom    2 type  1   force =    -0.00112678    0.00111614    0.00084771
     atom    3 type  1   force =     0.00013365    0.00037416    0.00083313
     atom    4 type  1   force =     0.00076808   -0.00102977    0.00081694
     atom    5 type  1   force =    -0.00103606   -0.00039780    0.00075738
     atom    6 type  1   force =     0.00027142   -0.00026524    0.00085087
     atom    7 type  1   force =     0.00023503   -0.00050918    0.00090358
     atom    8 type  1   force =    -0.00017909    0.00094442    0.00094295
     atom    9 type  1   force =    -0.00004785   -0.00031693    0.00091835
     atom   10 type  2   force =    -0.00000627    0.00000092    0.00000510

     Total force =     0.004959     Total SCF correction =     0.003848
     SCF correction compared to forces is large: reduce conv_thr to get better values

     Molecular Dynamics Calculation
     mass Ta               =   180.95
     mass H                =     2.01
     Time step             =    10.00 a.u.,  0.4838 femto-seconds

     Entering Dynamics:    iteration =     1
                           time      =   0.0005 pico-seconds

ATOMIC_POSITIONS (angstrom)
Ta           -0.0000000296        2.3375540056       10.0000000141
Ta            3.3057996333        2.3375539338        9.9999998740
Ta            6.6116004178        2.3375539565        9.9999998644
Ta            1.6529002908        4.6751070421        9.9999999785
Ta            4.9587000408        4.6751070140        9.9999995802
Ta            8.2644997018        4.6751070245        9.9999999735
Ta            3.3057995616        7.0126610305       10.0000000398
Ta            6.6116004646        7.0126609906       10.0000000344
Ta            9.9174000171        7.0126609656       10.0000000342
H             5.0000000240        3.9999999792        5.0000545246

     kinetic energy (Ekin) =           0.00000000 Ry
     temperature           =           0.00000000 K
     Ekin + Etot (const)   =       -1275.76157952 Ry

     Linear momentum :    0.0000000000    0.0000000000    0.0000000000

     File outdir/pwscf.msd.dat deleted, as requested

     The maximum number of steps has been reached.

     End of molecular dynamics calculation

     diffusion coefficients :
     atom     1   D =       0.00000000 cm^2/s
     atom     2   D =       0.00000000 cm^2/s
     atom     3   D =       0.00000000 cm^2/s
     atom     4   D =       0.00000000 cm^2/s
     atom     5   D =       0.00000000 cm^2/s
     atom     6   D =       0.00000000 cm^2/s
     atom     7   D =       0.00000000 cm^2/s
     atom     8   D =       0.00000000 cm^2/s
     atom     9   D =       0.00000000 cm^2/s
     atom    10   D =       0.00000000 cm^2/s

     < D > =       0.00000000 cm^2/s

     Writing all to output data dir outdir/pwscf.save/

     General routines

     Parallel routines

   This run was terminated on:   3:49: 1  14May2023

   JOB DONE.