     Program PWSCF v.7.2 starts on 18May2023 at  3:54:41

     Reading input from HfNbTaZr_16_MD_nsteps_1.in
Warning: card &CELL ignored
Warning: card / ignored
Warning: card TA 0.0 0.0 0.0 ignored
Warning: card NB 0.0 0.0 0.0 ignored
Warning: card HF 0.0 0.0 0.0 ignored
Warning: card ZR 0.0 0.0 0.0 ignored
Warning: card H 0.0 0.0 -0.03464 ignored

     Current dimensions of program PWSCF are:
     Max number of different atomic species (ntypx) = 10
     Max number of k-points (npk) =  40000
     Max angular momentum in pseudopotentials (lmaxx) =  4

     File ./pwscf.md deleted, as requested

     R & G space division:  proc/nbgrp/npool/nimage =      12
     Subspace diagonalization in iterative solution of the eigenvalue problem:
     a serial algorithm will be used

     Using Slab Decomposition

     bravais-lattice index     =            0
     lattice parameter (alat)  =       6.3117  a.u.
     unit-cell volume          =    1205.8245 (a.u.)^3
     number of atoms/cell      =           17
     number of atomic types    =            5
     number of electrons       =       201.00
     number of Kohn-Sham states=          121
     kinetic-energy cutoff     =     120.0000  Ry
     charge density cutoff     =     480.0000  Ry
     scf convergence threshold =      1.0E-06
     mixing beta               =       0.7000
     number of iterations used =            8  TF        mixing
     energy convergence thresh.=      0.0E+00
     force convergence thresh. =      0.0E+00
     Exchange-correlation=  SLA  PW   PBX  PBC
                           (   1   4   3   4   0   0   0)
     nstep                     =            3

     celldm(1)=   6.311685  celldm(2)=   0.000000  celldm(3)=   0.000000
     celldm(4)=   0.000000  celldm(5)=   0.000000  celldm(6)=   0.000000

     crystal axes: (cart. coord. in units of alat)
               a(1) = (   1.000000   0.000000   0.000000 )
               a(2) = (   0.000000   1.000000   0.000000 )
               a(3) = (   0.000000   0.000000   4.795658 )

     reciprocal axes: (cart. coord. in units 2 pi/alat)
               b(1) = (  1.000000  0.000000  0.000000 )
               b(2) = (  0.000000  1.000000  0.000000 )
               b(3) = (  0.000000  0.000000  0.208522 )

     PseudoPot. # 1 for Hf read from file:
     q-e/pseudo/hf_pbe_v1.uspp.F.UPF
     MD5 check sum: 8ee9378dfe14276e333edf04c5e4aa26
     Pseudo is Ultrasoft + core correction, Zval = 12.0
     Generated by new atomic code, or converted to UPF format
     Using radial grid of  921 points,  8 beta functions with:
                l(1) =   0
                l(2) =   0
                l(3) =   0
                l(4) =   1
                l(5) =   1
                l(6) =   2
                l(7) =   2
                l(8) =   3
     Q(r) pseudized with  6 coefficients,  rinner =    1.200   1.200   1.200
                                                       1.200   1.200   1.200
                                                       1.200

     PseudoPot. # 2 for Nb read from file:
     q-e/pseudo/nb_pbe_v1.uspp.F.UPF
     MD5 check sum: 573aab8a2fa660278ed4a62cd769473f
     Pseudo is Ultrasoft + core correction, Zval = 13.0
     Generated by new atomic code, or converted to UPF format
     Using radial grid of  887 points,  6 beta functions with:
                l(1) =   0
                l(2) =   0
                l(3) =   1
                l(4) =   1
                l(5) =   2
                l(6) =   2
     Q(r) pseudized with  6 coefficients,  rinner =    1.000   1.000   1.000
                                                       1.000   1.000

     PseudoPot. # 3 for Ta read from file:
     q-e/pseudo/ta_pbe_v1.uspp.F.UPF
     MD5 check sum: f8bbe9446314a3b8ea5d9f3e3836c939
     Pseudo is Ultrasoft + core correction, Zval = 13.0
     Generated by new atomic code, or converted to UPF format
     Using radial grid of  921 points,  7 beta functions with:
                l(1) =   0
                l(2) =   0
                l(3) =   1
                l(4) =   1
                l(5) =   2
                l(6) =   2
                l(7) =   3
     Q(r) pseudized with  6 coefficients,  rinner =    1.300   1.300   1.300
                                                       1.300   1.300   1.300
                                                       1.300

     PseudoPot. # 4 for Zr read from file:
     q-e/pseudo/zr_pbe_v1.uspp.F.UPF
     MD5 check sum: 5db81b1e868ab7776c4564c113de050b
     Pseudo is Ultrasoft + core correction, Zval = 12.0
     Generated by new atomic code, or converted to UPF format
     Using radial grid of  887 points,  6 beta functions with:
                l(1) =   0
                l(2) =   0
                l(3) =   1
                l(4) =   1
                l(5) =   2
                l(6) =   2
     Q(r) pseudized with  6 coefficients,  rinner =    1.200   1.200   1.200
                                                       1.200   1.200

     PseudoPot. # 5 for H  read from file:
     q-e/pseudo/h_pbe_v1.4.uspp.F.UPF
     MD5 check sum: 761ae9a214b05c3daf00ab9f6b793d6f
     Pseudo is Ultrasoft, Zval =  1.0
     Generated by new atomic code, or converted to UPF format
     Using radial grid of  615 points,  2 beta functions with:
                l(1) =   0
                l(2) =   0
     Q(r) pseudized with  8 coefficients,  rinner =    0.700

     atomic species   valence    mass     pseudopotential
        Hf            12.00   178.49000     Hf( 1.00)
        Nb            13.00    92.90637     Nb( 1.00)
        Ta            13.00   180.94788     Ta( 1.00)
        Zr            12.00    91.22400     Zr( 1.00)
        H              1.00     2.01400     H ( 1.00)

     Starting magnetic structure
     atomic species   magnetization
        Hf           0.000
        Nb           0.000
        Ta           0.000
        Zr           0.000
        H            0.000

     No symmetry found

   Cartesian axes

     site n.     atom                  positions (alat units)
         1           Hf  tau(   1) = (   0.0257126  -0.2380670   2.2314993  )
         2           Hf  tau(   2) = (   0.2958296   0.5692939   2.5037300  )
         3           Nb  tau(   3) = (   0.3217662   0.0406148   2.0418082  )
         4           Nb  tau(   4) = (   0.4937457   0.2582876   2.7527939  )
         5           Ta  tau(   5) = (   0.0212498  -0.2341460   2.8101201  )
         6           Ta  tau(   6) = (   0.5845723   0.2992196   2.2933701  )
         7           Zr  tau(   7) = (   0.2986909   0.5225072   1.9927540  )
         8           Zr  tau(   8) = (   0.7544410   0.0627153   2.9992503  )
         9           Hf  tau(   9) = (   0.5802524  -0.2154994   2.2600362  )
        10           Hf  tau(  10) = (  -0.1941074   0.5101935   2.5308539  )
        11           Nb  tau(  11) = (   0.7250384   0.4803520   1.9329121  )
        12           Nb  tau(  12) = (   0.0441887   0.2749999   2.2631228  )
        13           Ta  tau(  13) = (   0.2698528   0.0362638   2.5181471  )
        14           Ta  tau(  14) = (   0.7908960   1.0015695   2.5327994  )
        15           Zr  tau(  15) = (   0.5521811   0.7840991   1.7964073  )
        16           Zr  tau(  16) = (   0.0558847   0.2677700   2.8092407  )
        17           H   tau(  17) = (   1.4970061   1.1976048   1.4970061  )

     number of k points=     1  Gaussian smearing, width (Ry)=  0.0220
                       cart. coord. in units 2pi/alat
        k(    1) = (   0.0000000   0.0000000   0.0000000), wk =   1.0000000

     Check: negative core charge=   -0.000004
     Generating pointlists ...
     new r_m :   0.1597 (alat units)  1.0080 (a.u.) for type    1
     new r_m :   0.1548 (alat units)  0.9769 (a.u.) for type    2
     new r_m :   0.1597 (alat units)  1.0080 (a.u.) for type    3
     new r_m :   0.1548 (alat units)  0.9769 (a.u.) for type    4
     new r_m :   0.2118 (alat units)  1.3369 (a.u.) for type    5

     Initial potential from superposition of free atoms

     starting charge     192.9760, renormalised to     201.0000

     negative rho (up, down):  3.317E-01 3.317E-01
     Starting wfcs are  209 randomized atomic wfcs

     Self-consistent Calculation

     iteration #  1     ecut=   120.00 Ry     beta= 0.70
     Davidson diagonalization with overlap
     ethr =  1.00E-02,  avg # of iterations =  6.0

     negative rho (up, down):  2.038E-01 2.036E-01

     total energy              =   -1899.66792791 Ry
     estimated scf accuracy    <     149.89063570 Ry

     total magnetization       =    -0.00 Bohr mag/cell
     absolute magnetization    =     0.06 Bohr mag/cell

[...]

     Magnetic moment per site  (integrated on atomic sphere of radius R)
     atom   1 (R=0.160)  charge=  4.5294  magn= -0.0000
     atom   2 (R=0.160)  charge=  4.5752  magn= -0.0000
     atom   3 (R=0.155)  charge=  4.3344  magn= -0.0000
     atom   4 (R=0.155)  charge=  4.4452  magn= -0.0000
     atom   5 (R=0.160)  charge=  4.6785  magn= -0.0000
     atom   6 (R=0.160)  charge=  5.4000  magn= -0.0000
     atom   7 (R=0.155)  charge=  3.6596  magn= -0.0000
     atom   8 (R=0.155)  charge=  3.3141  magn= -0.0000
     atom   9 (R=0.160)  charge=  4.7336  magn=  0.0000
     atom  10 (R=0.160)  charge=  4.7479  magn= -0.0000
     atom  11 (R=0.155)  charge=  4.2647  magn=  0.0000
     atom  12 (R=0.155)  charge=  4.6235  magn= -0.0000
     atom  13 (R=0.160)  charge=  5.3972  magn= -0.0000
     atom  14 (R=0.160)  charge=  5.3504  magn= -0.0000
     atom  15 (R=0.155)  charge=  3.4477  magn=  0.0000
     atom  16 (R=0.155)  charge=  3.6900  magn= -0.0000
     atom  17 (R=0.212)  charge=  1.0536  magn=  0.0000

     End of self-consistent calculation

 ------ SPIN UP ------------

          k = 0.0000 0.0000 0.0000 ( 26649 PWs)   bands (ev):

   -88.6819 -77.2026 -74.6701 -73.7983 -71.3122 -66.5980 -63.4869 -60.7552
   -59.5412 -57.3397 -56.9364 -56.3103 -54.2676 -51.8637 -49.0531 -46.3938
   -44.8233 -43.9782 -42.3945 -40.2620 -39.0978 -37.1223 -35.1016 -33.6400
   -31.9857 -30.9661 -30.0256 -28.5960 -27.8330 -26.6808 -26.4888 -24.7061
   -23.7370 -22.5163 -21.7342 -20.8194 -18.8652 -18.7574 -17.4559 -16.7505
   -15.7403 -15.5521 -14.2677 -13.8298 -12.7116 -11.3089 -10.9809 -10.4525
   -10.0498  -8.4199  -7.5438  -7.1865  -6.9769  -6.0567  -5.0778  -4.3867
    -4.1332  -2.7913  -2.2437  -1.5752  -1.1508   0.4611   0.8445   1.7551
     2.4347   2.9290   3.4511   4.9647   5.2702   6.5727   7.1768   7.8992
     8.5832   9.4282   9.8712  10.4423  10.8908  11.1116  12.5066  12.9242
    13.8062  15.0298  15.8143  16.1449  17.9207  18.8886  19.6409  20.4750
    20.8635  21.2971  21.9503  22.4534  23.2895  23.9998  24.1897  24.3103
    25.1833  25.3713  26.0920  26.4206  27.5910  27.8738  27.9750  28.4459
    29.2933  29.6269  30.5588  30.7134  31.0059  31.1592  31.6811  31.8919
    32.3775  33.0066  33.7970  34.0685  34.5720  35.0067  35.2090  35.7409
    36.0891

 ------ SPIN DOWN ----------

[...]

     the Fermi energy is    27.5468 ev

!    total energy              =   -1896.41250391 Ry
     estimated scf accuracy    <       0.00000080 Ry
     smearing contrib. (-TS)   =      -0.01751052 Ry
[...]
Nb            2.4216282335        1.6043757567        6.4559262597    0   0   0
Nb            0.1475903912        0.9184995235        7.5588298057    0   0   0
Ta            0.9013084356        0.1211212120        8.4106110025    0   0   0
Ta            2.6415926642        3.3452418198        8.4595496119    0   0   0
Zr            1.8442847182        2.6188909264        6.0000000000    0   0   0
Zr            0.1866550429        0.8943516698        9.3828635984    0   0   0
H             4.9970444489        3.9853612687        4.9837826858

     kinetic energy (Ekin) =           0.00285013 Ry
     temperature           =         300.00000000 K
     Ekin + Etot (const)   =       -1896.40965378 Ry

     File ./pwscf.msd.dat deleted, as requested

     Writing config-only to output data dir ./pwscf.save/
     NEW-OLD atomic charge density approx. for the potential

     Check: negative core charge=   -0.000004

     negative rho (up, down):  1.624E-01 1.624E-01
     Generating pointlists ...

[...]

     Threshold (ethr) on eigenvalues was too large:
     Diagonalizing with lowered threshold

     Davidson diagonalization with overlap
     ethr =  6.72E-08,  avg # of iterations =  1.0

[...]

     Writing config-only to output data dir ./pwscf.save/
     NEW-OLD atomic charge density approx. for the potential

     Check: negative core charge=   -0.000004

     negative rho (up, down):  1.624E-01 1.624E-01
     Generating pointlists ...

     Self-consistent Calculation

[...]

     total energy              =   -1896.42584622 Ry
     estimated scf accuracy    <       0.00000105 Ry

[...]

     iteration #  9     ecut=   120.00 Ry     beta= 0.70
     Davidson diagonalization with overlap
     ethr =  5.22E-10,  avg # of iterations =  2.0

[...]

     Magnetic moment per site  (integrated on atomic sphere of radius R)
     atom   1 (R=0.160)  charge=  4.5293  magn=  0.0000
     atom   2 (R=0.160)  charge=  4.5752  magn= -0.0000
     atom   3 (R=0.155)  charge=  4.3341  magn= -0.0000
     atom   4 (R=0.155)  charge=  4.4450  magn= -0.0000
     atom   5 (R=0.160)  charge=  4.6786  magn=  0.0000
     atom   6 (R=0.160)  charge=  5.3998  magn=  0.0000
     atom   7 (R=0.155)  charge=  3.6594  magn= -0.0000
     atom   8 (R=0.155)  charge=  3.3139  magn= -0.0000
     atom   9 (R=0.160)  charge=  4.7334  magn= -0.0000
     atom  10 (R=0.160)  charge=  4.7478  magn=  0.0000
     atom  11 (R=0.155)  charge=  4.2641  magn=  0.0000
     atom  12 (R=0.155)  charge=  4.6236  magn=  0.0000
     atom  13 (R=0.160)  charge=  5.3972  magn= -0.0000
     atom  14 (R=0.160)  charge=  5.3502  magn=  0.0000
     atom  15 (R=0.155)  charge=  3.4475  magn=  0.0000
     atom  16 (R=0.155)  charge=  3.6901  magn=  0.0000
     atom  17 (R=0.212)  charge=  1.0125  magn= -0.0000

     End of self-consistent calculation

 ------ SPIN UP ------------

[...]

 ------ SPIN DOWN ----------

          k = 0.0000 0.0000 0.0000 ( 26649 PWs)   bands (ev):

   -88.7076 -77.2283 -74.6942 -73.8213 -71.3371 -66.6209 -63.5103 -60.7785
   -59.5653 -57.3636 -56.9591 -56.3338 -54.2914 -51.8874 -49.0764 -46.4182
   -44.8463 -44.0009 -42.4175 -40.2853 -39.1215 -37.1468 -35.1259 -33.6633
   -32.0084 -30.9894 -30.0483 -28.6194 -27.8571 -26.7048 -26.5114 -24.7290
   -23.7608 -22.5397 -21.7583 -20.8429 -18.8880 -18.7811 -17.4791 -16.7724
   -15.7630 -15.5754 -14.2912 -13.8522 -12.7329 -11.3319 -11.0046 -10.4757
   -10.0736  -8.4438  -7.5656  -7.2093  -6.9992  -6.0803  -5.1000  -4.4096
    -4.1568  -2.8142  -2.2677  -1.5982  -1.1731   0.4387   0.8212   1.7324
     2.4132   2.9082   3.4276   4.9413   5.2481   6.5507   7.1536   7.8753
     8.5607   9.4061   9.8485  10.4211  10.8818  11.0896  12.4838  12.9021
    13.7842  15.0420  15.7921  16.1280  17.9374  18.8680  19.6272  20.4553
    20.8538  21.2738  21.9367  22.4287  23.2641  23.9693  24.1691  24.2882
    25.1601  25.3506  26.0675  26.3900  27.5761  27.8523  27.9533  28.4040
    29.2875  29.6017  30.5815  30.6917  30.9926  31.1509  31.6600  31.8585
    32.3953  33.0133  33.7831  34.0460  34.5436  34.9718  35.1793  35.7303
    36.0671

     the Fermi energy is    27.5298 ev

!    total energy              =   -1896.42584767 Ry
     estimated scf accuracy    <       0.00000066 Ry
     smearing contrib. (-TS)   =      -0.01768739 Ry
     internal energy E=F+TS    =   -1896.40816028 Ry

     total magnetization       =    -0.00 Bohr mag/cell
     absolute magnetization    =     0.00 Bohr mag/cell

     convergence has been achieved in   9 iterations

     negative rho (up, down):  1.623E-01 1.623E-01

     Forces acting on atoms (cartesian axes, Ry/au):

     atom    1 type  1   force =    -1.68681032    2.44709188  -11.28705442
     atom    2 type  1   force =     1.64527180   -0.49284451    8.54556915
     atom    3 type  2   force =    -3.47058455    3.27365456  -12.26909858
     atom    4 type  2   force =     1.19062179    6.85894071   14.76306908
     atom    5 type  3   force =     5.11107196   -4.21080001   16.20821852
     atom    6 type  3   force =    -3.46787153   -4.91684146  -10.88744021
     atom    7 type  4   force =    -6.56294256   -3.55390353   -9.54729354
     atom    8 type  4   force =    -3.78051979   -2.42104244   14.28792553
     atom    9 type  1   force =    -0.45028563    1.70160808   -5.70290897
     atom   10 type  1   force =    -0.22329375    3.31328714   10.93670841
     atom   11 type  2   force =    10.66306200   -8.95608399   -8.45905863
     atom   12 type  2   force =    -2.11712488    0.25118530  -10.26935178
     atom   13 type  3   force =     1.93794471   -6.89104617    2.82642710
     atom   14 type  3   force =    -1.78463441   -0.37009573    4.85636261
     atom   15 type  4   force =     1.15410840    9.05972739  -14.90268918
     atom   16 type  4   force =     1.89285943    4.84091330   11.04100909
     atom   17 type  5   force =    -0.05087268    0.06624950   -0.14039420
     The non-local contrib.  to forces
     atom    1 type  1   force =     1.77208217   -0.89770364    1.31315420
     atom    2 type  1   force =    -0.39400643   -1.43682222   -0.82630494
     atom    3 type  2   force =    -0.31530186    0.38886926   -1.88092016
     atom    4 type  2   force =     0.43820507    0.67154253    2.52528059
     atom    5 type  3   force =    -1.88882729    1.76431725   -4.12238171
     atom    6 type  3   force =     0.98418234    1.80676286    0.76540821
     atom    7 type  4   force =    -1.52129574   -0.20056097   -2.08231680
     atom    8 type  4   force =    -0.52411117   -0.42091999    2.45008665
     atom    9 type  1   force =    -0.91440356    0.56904025    0.03351321
     atom   10 type  1   force =    -0.20162316   -2.24911233   -2.11769729
     atom   11 type  2   force =     1.28898830   -0.69157650   -1.69024970
     atom   12 type  2   force =    -0.30628827    0.15810960   -1.00162694
     atom   13 type  3   force =    -0.19444736    3.25087828    0.76468730
     atom   14 type  3   force =    -0.21396508    0.38303103   -0.54640633
     atom   15 type  4   force =     0.79072717    1.16589527   -2.38388770
     atom   16 type  4   force =     0.57056300    0.59977906    2.09972218
     atom   17 type  5   force =    -0.00364927   -0.00318971    0.05744527
     The ionic contribution  to forces
     atom    1 type  1   force =   -10.66718113   10.79125786 -181.11463881
     atom    2 type  1   force =     9.26673779   13.66227811  139.16491149
     atom    3 type  2   force =   -18.23801832    9.69589716 -381.04099258
     atom    4 type  2   force =    -4.05342589   24.13970960  397.05445892
     atom    5 type  3   force =    17.86055966  -21.69939427  435.95564546
     atom    6 type  3   force =     1.43469424  -13.05473614 -121.34739590
     atom    7 type  4   force =   -33.86342516  -12.28052949 -378.71869290
     atom    8 type  4   force =   -18.94722724  -14.80632332  494.07431329
     atom    9 type  1   force =     8.35598669    8.74876705 -124.47393683
     atom   10 type  1   force =    -6.39971713   19.21690975  163.72151159
     atom   11 type  2   force =    44.53109849  -33.46046130 -447.60756988
     atom   12 type  2   force =   -13.38114532   -5.37814014 -167.09309399
     atom   13 type  3   force =     8.88937568  -26.66333215  145.80143940
     atom   14 type  3   force =    -9.67288828  -15.82831089  151.79440298
     atom   15 type  4   force =    12.76998648   34.58547510 -487.59449278
     atom   16 type  4   force =    12.26768824   22.15211935  400.11547676
     atom   17 type  5   force =    -0.15309881    0.17881373  -38.69134623
     The local contribution  to forces
     atom    1 type  1   force =     7.06474631   -7.29837249  168.03778529
     atom    2 type  1   force =    -7.11628550  -12.62828383 -129.45021701
     atom    3 type  2   force =    15.06699562   -6.78676752  370.54782850
     atom    4 type  2   force =     4.79785556  -17.92209696 -384.69962402
     atom    5 type  3   force =   -10.67374844   15.57081342 -415.06172803
     atom    6 type  3   force =    -5.95615452    6.12054955  109.41986962
     atom    7 type  4   force =    28.72182165    8.89791943  371.13984728
     atom    8 type  4   force =    15.65999931   12.77320314 -482.08143824
     atom    9 type  1   force =    -7.85506725   -7.47348130  118.62991966
     atom   10 type  1   force =     6.29107135  -13.49283103 -150.22774920
     atom   11 type  2   force =   -35.05947400   25.09854476  440.75358300
     atom   12 type  2   force =    11.55199849    5.47021260  157.77727902
     atom   13 type  3   force =    -6.68286974   16.30860134 -143.67955849
     atom   14 type  3   force =     7.99684085   15.04446650 -146.28851732
     atom   15 type  4   force =   -12.37949427  -26.57599374  474.90490045
     atom   16 type  4   force =   -10.89958880  -17.86469503 -391.06001079
     atom   17 type  5   force =     0.10587046   -0.10938096   38.49350919
     The core correction contribution to forces
     atom    1 type  1   force =     0.14357309   -0.14810979    0.47686684
     atom    2 type  1   force =    -0.11117255   -0.09000252   -0.34256329
     atom    3 type  2   force =     0.01582189   -0.02442349    0.10511406
     atom    4 type  2   force =     0.00800501   -0.03024466   -0.11652662
     atom    5 type  3   force =    -0.18690634    0.15346602   -0.56278624
     atom    6 type  3   force =     0.06937805    0.21059745    0.27492281
     atom    7 type  4   force =     0.10006195    0.02932020    0.11401471
     atom    8 type  4   force =     0.03076652    0.03300052   -0.15443114
     atom    9 type  1   force =    -0.03686405   -0.14274545    0.10772837
     atom   10 type  1   force =     0.08696500   -0.16168475   -0.43908321
     atom   11 type  2   force =    -0.09769546    0.09749721    0.08533198
     atom   12 type  2   force =     0.01831331    0.00102076    0.04835863
     atom   13 type  3   force =    -0.07407805    0.21279188   -0.05979074
     atom   14 type  3   force =     0.10535306    0.03074279   -0.10272731
     atom   15 type  4   force =    -0.02715046   -0.11561509    0.17073155
     atom   16 type  4   force =    -0.04579917   -0.04630068   -0.11368181
     atom   17 type  5   force =     0.00000000    0.00000000    0.00000000
     The Hubbard contrib.    to forces
     atom    1 type  1   force =     0.00000000    0.00000000    0.00000000
     atom    2 type  1   force =     0.00000000    0.00000000    0.00000000
     atom    3 type  2   force =     0.00000000    0.00000000    0.00000000
     atom    4 type  2   force =     0.00000000    0.00000000    0.00000000
     atom    5 type  3   force =     0.00000000    0.00000000    0.00000000
     atom    6 type  3   force =     0.00000000    0.00000000    0.00000000
     atom    7 type  4   force =     0.00000000    0.00000000    0.00000000
     atom    8 type  4   force =     0.00000000    0.00000000    0.00000000
     atom    9 type  1   force =     0.00000000    0.00000000    0.00000000
     atom   10 type  1   force =     0.00000000    0.00000000    0.00000000
     atom   11 type  2   force =     0.00000000    0.00000000    0.00000000
     atom   12 type  2   force =     0.00000000    0.00000000    0.00000000
     atom   13 type  3   force =     0.00000000    0.00000000    0.00000000
     atom   14 type  3   force =     0.00000000    0.00000000    0.00000000
     atom   15 type  4   force =     0.00000000    0.00000000    0.00000000
     atom   16 type  4   force =     0.00000000    0.00000000    0.00000000
     atom   17 type  5   force =     0.00000000    0.00000000    0.00000000
     The SCF correction term to forces
     atom    1 type  1   force =    -0.00000000    0.00000000   -0.00000000
     atom    2 type  1   force =    -0.00000000   -0.00000000   -0.00000000
     atom    3 type  2   force =    -0.00000000    0.00000000   -0.00000000
     atom    4 type  2   force =    -0.00000000    0.00000000   -0.00000000
     atom    5 type  3   force =    -0.00000000   -0.00000000   -0.00000000
     atom    6 type  3   force =     0.00000000   -0.00000000   -0.00000000
     atom    7 type  4   force =    -0.00000000   -0.00000000   -0.00000000
     atom    8 type  4   force =     0.00000000   -0.00000000   -0.00000000
     atom    9 type  1   force =     0.00000000    0.00000000   -0.00000000
     atom   10 type  1   force =     0.00000000    0.00000000   -0.00000000
     atom   11 type  2   force =     0.00000000   -0.00000000   -0.00000000
     atom   12 type  2   force =    -0.00000000   -0.00000000   -0.00000000
     atom   13 type  3   force =    -0.00000000    0.00000000   -0.00000000
     atom   14 type  3   force =     0.00000000   -0.00000000   -0.00000000
     atom   15 type  4   force =     0.00000000   -0.00000000    0.00000000
     atom   16 type  4   force =    -0.00000000    0.00000000   -0.00000000
     atom   17 type  5   force =     0.00000275    0.00000607    0.00006825

     Total force =     0.163363     Total SCF correction =     0.000069

     Entering Dynamics:    iteration =     3
                           time      =   0.0030 pico-seconds

ATOMIC_POSITIONS (angstrom)
Hf            0.0858800679       -0.7951436715        7.4532072815    0   0   0
Hf            0.9880709739        1.9014415882        8.3624579711    0   0   0
Nb            1.0746989219        0.1356535858        6.8196389631    0   0   0
Nb            1.6491103981        0.8626804318        9.1943310858    0   0   0
Ta            0.0709744107       -0.7820475991        9.3858007313    0   0   0
Ta            1.9524714937        0.9993933557        7.6598559185    0   0   0
Zr            0.9976274959        1.7451739843        6.6557981874    0   0   0
Zr            2.5198328619        0.2094691683       10.0174953943    0   0   0
Hf            1.9380429646       -0.7197681019        7.5485206618    0   0   0
Hf           -0.6483186390        1.7040463621        8.4530515930    0   0   0
Nb            2.4216282335        1.6043757567        6.4559262597    0   0   0
Nb            0.1475903912        0.9184995235        7.5588298057    0   0   0
Ta            0.9013084356        0.1211212120        8.4106110025    0   0   0
Ta            2.6415926642        3.3452418198        8.4595496119    0   0   0
Zr            1.8442847182        2.6188909264        6.0000000000    0   0   0
Zr            0.1866550429        0.8943516698        9.3828635984    0   0   0
H             4.9711629099        3.9814438976        4.8945876669

     kinetic energy (Ekin) =           0.01605537 Ry
     temperature           =        1689.96149231 K
     Ekin + Etot (const)   =       -1896.40979230 Ry

     The maximum number of steps has been reached.

     End of molecular dynamics calculation

     diffusion coefficients :
     atom     1   D =       0.00000000 cm^2/s
     atom     2   D =       0.00000000 cm^2/s
     atom     3   D =       0.00000000 cm^2/s
     atom     4   D =       0.00000000 cm^2/s
     atom     5   D =       0.00000000 cm^2/s
     atom     6   D =       0.00000000 cm^2/s
     atom     7   D =       0.00000000 cm^2/s
     atom     8   D =       0.00000000 cm^2/s
     atom     9   D =       0.00000000 cm^2/s
     atom    10   D =       0.00000000 cm^2/s
     atom    11   D =       0.00000000 cm^2/s
     atom    12   D =       0.00000000 cm^2/s
     atom    13   D =       0.00000000 cm^2/s
     atom    14   D =       0.00000000 cm^2/s
     atom    15   D =       0.00000000 cm^2/s
     atom    16   D =       0.00000000 cm^2/s
     atom    17   D =       0.00006719 cm^2/s

     < D > =       0.00006719 cm^2/s

     Writing all to output data dir ./pwscf.save/

     General routines

     Parallel routines

   This run was terminated on:   4: 2:53  18May2023

   JOB DONE.