     Program PWSCF v.7.2 starts on 22May2023 at 19:13:18

     Reading input from HfNbTaZr_16_MD_nsteps_10.in
Warning: card &CELL ignored
Warning: card / ignored
Warning: card TA 0.0 0.0 0.0 ignored
Warning: card NB 0.0 0.0 0.0 ignored
Warning: card HF 0.0 0.0 0.0 ignored
Warning: card ZR 0.0 0.0 0.0 ignored
Warning: card H 0.0 0.0 -0.03464 ignored

     Current dimensions of program PWSCF are:
     Max number of different atomic species (ntypx) = 10
     Max number of k-points (npk) =  40000
     Max angular momentum in pseudopotentials (lmaxx) =  4

     File ./pwscf.md deleted, as requested

     R & G space division:  proc/nbgrp/npool/nimage =      12
     Subspace diagonalization in iterative solution of the eigenvalue problem:
     a serial algorithm will be used

     Using Slab Decomposition

     bravais-lattice index     =            0
     lattice parameter (alat)  =       6.3117  a.u.
     unit-cell volume          =    1205.8245 (a.u.)^3
     number of atoms/cell      =           17
     number of atomic types    =            5
     number of electrons       =       201.00
     number of Kohn-Sham states=          121
     kinetic-energy cutoff     =     120.0000  Ry
     charge density cutoff     =     480.0000  Ry
     scf convergence threshold =      1.0E-06
     mixing beta               =       0.7000
     number of iterations used =            8  TF        mixing
     energy convergence thresh.=      0.0E+00
     force convergence thresh. =      0.0E+00
     Exchange-correlation=  SLA  PW   PBX  PBC
                           (   1   4   3   4   0   0   0)
     nstep                     =           10

     celldm(1)=   6.311685  celldm(2)=   0.000000  celldm(3)=   0.000000
     celldm(4)=   0.000000  celldm(5)=   0.000000  celldm(6)=   0.000000

     crystal axes: (cart. coord. in units of alat)
               a(1) = (   1.000000   0.000000   0.000000 )
               a(2) = (   0.000000   1.000000   0.000000 )
               a(3) = (   0.000000   0.000000   4.795658 )

     reciprocal axes: (cart. coord. in units 2 pi/alat)
               b(1) = (  1.000000  0.000000  0.000000 )
               b(2) = (  0.000000  1.000000  0.000000 )
               b(3) = (  0.000000  0.000000  0.208522 )

     PseudoPot. # 1 for Hf read from file:
     q-e/pseudo/hf_pbe_v1.uspp.F.UPF
     MD5 check sum: 8ee9378dfe14276e333edf04c5e4aa26
     Pseudo is Ultrasoft + core correction, Zval = 12.0
     Generated by new atomic code, or converted to UPF format
     Using radial grid of  921 points,  8 beta functions with:
                l(1) =   0
                l(2) =   0
                l(3) =   0
                l(4) =   1
                l(5) =   1
                l(6) =   2
                l(7) =   2
                l(8) =   3
     Q(r) pseudized with  6 coefficients,  rinner =    1.200   1.200   1.200
                                                       1.200   1.200   1.200
                                                       1.200

     PseudoPot. # 2 for Nb read from file:
     q-e/pseudo/nb_pbe_v1.uspp.F.UPF
     MD5 check sum: 573aab8a2fa660278ed4a62cd769473f
     Pseudo is Ultrasoft + core correction, Zval = 13.0
     Generated by new atomic code, or converted to UPF format
     Using radial grid of  887 points,  6 beta functions with:
                l(1) =   0
                l(2) =   0
                l(3) =   1
                l(4) =   1
                l(5) =   2
                l(6) =   2
     Q(r) pseudized with  6 coefficients,  rinner =    1.000   1.000   1.000
                                                       1.000   1.000

     PseudoPot. # 3 for Ta read from file:
     q-e/pseudo/ta_pbe_v1.uspp.F.UPF
     MD5 check sum: f8bbe9446314a3b8ea5d9f3e3836c939
     Pseudo is Ultrasoft + core correction, Zval = 13.0
     Generated by new atomic code, or converted to UPF format
     Using radial grid of  921 points,  7 beta functions with:
                l(1) =   0
                l(2) =   0
                l(3) =   1
                l(4) =   1
                l(5) =   2
                l(6) =   2
                l(7) =   3
     Q(r) pseudized with  6 coefficients,  rinner =    1.300   1.300   1.300
                                                       1.300   1.300   1.300
                                                       1.300

     PseudoPot. # 4 for Zr read from file:
     q-e/pseudo/zr_pbe_v1.uspp.F.UPF
     MD5 check sum: 5db81b1e868ab7776c4564c113de050b
     Pseudo is Ultrasoft + core correction, Zval = 12.0
     Generated by new atomic code, or converted to UPF format
     Using radial grid of  887 points,  6 beta functions with:
                l(1) =   0
                l(2) =   0
                l(3) =   1
                l(4) =   1
                l(5) =   2
                l(6) =   2
     Q(r) pseudized with  6 coefficients,  rinner =    1.200   1.200   1.200
                                                       1.200   1.200

     PseudoPot. # 5 for H  read from file:
     q-e/pseudo/h_pbe_v1.4.uspp.F.UPF
     MD5 check sum: 761ae9a214b05c3daf00ab9f6b793d6f
     Pseudo is Ultrasoft, Zval =  1.0
     Generated by new atomic code, or converted to UPF format
     Using radial grid of  615 points,  2 beta functions with:
                l(1) =   0
                l(2) =   0
     Q(r) pseudized with  8 coefficients,  rinner =    0.700

     atomic species   valence    mass     pseudopotential
        Hf            12.00   178.49000     Hf( 1.00)
        Nb            13.00    92.90637     Nb( 1.00)
        Ta            13.00   180.94788     Ta( 1.00)
        Zr            12.00    91.22400     Zr( 1.00)
        H              1.00     2.01400     H ( 1.00)

     Starting magnetic structure
     atomic species   magnetization
        Hf           0.000
        Nb           0.000
        Ta           0.000
        Zr           0.000
        H            0.000

     No symmetry found

   Cartesian axes

     site n.     atom                  positions (alat units)
         1           Hf  tau(   1) = (   0.0257126  -0.2380670   2.2314993  )
         2           Hf  tau(   2) = (   0.2958296   0.5692939   2.5037300  )
         3           Nb  tau(   3) = (   0.3217662   0.0406148   2.0418082  )
         4           Nb  tau(   4) = (   0.4937457   0.2582876   2.7527939  )
         5           Ta  tau(   5) = (   0.0212498  -0.2341460   2.8101201  )
         6           Ta  tau(   6) = (   0.5845723   0.2992196   2.2933701  )
         7           Zr  tau(   7) = (   0.2986909   0.5225072   1.9927540  )
         8           Zr  tau(   8) = (   0.7544410   0.0627153   2.9992503  )
         9           Hf  tau(   9) = (   0.5802524  -0.2154994   2.2600362  )
        10           Hf  tau(  10) = (  -0.1941074   0.5101935   2.5308539  )
        11           Nb  tau(  11) = (   0.7250384   0.4803520   1.9329121  )
        12           Nb  tau(  12) = (   0.0441887   0.2749999   2.2631228  )
        13           Ta  tau(  13) = (   0.2698528   0.0362638   2.5181471  )
        14           Ta  tau(  14) = (   0.7908960   1.0015695   2.5327994  )
        15           Zr  tau(  15) = (   0.5521811   0.7840991   1.7964073  )
        16           Zr  tau(  16) = (   0.0558847   0.2677700   2.8092407  )
        17           H   tau(  17) = (   1.4970061   1.1976048   1.4970061  )

     number of k points=     1  Gaussian smearing, width (Ry)=  0.0220
                       cart. coord. in units 2pi/alat
        k(    1) = (   0.0000000   0.0000000   0.0000000), wk =   1.0000000

     Check: negative core charge=   -0.000004
     Generating pointlists ...
     new r_m :   0.1597 (alat units)  1.0080 (a.u.) for type    1
     new r_m :   0.1548 (alat units)  0.9769 (a.u.) for type    2
     new r_m :   0.1597 (alat units)  1.0080 (a.u.) for type    3
     new r_m :   0.1548 (alat units)  0.9769 (a.u.) for type    4
     new r_m :   0.2118 (alat units)  1.3369 (a.u.) for type    5

     Initial potential from superposition of free atoms

     starting charge     192.9760, renormalised to     201.0000

     negative rho (up, down):  3.317E-01 3.317E-01
     Starting wfcs are  209 randomized atomic wfcs

     Self-consistent Calculation

     iteration #  1     ecut=   120.00 Ry     beta= 0.70
     Davidson diagonalization with overlap
     ethr =  1.00E-02,  avg # of iterations =  6.0

     negative rho (up, down):  2.038E-01 2.036E-01

     total energy              =   -1899.66792791 Ry
     estimated scf accuracy    <     149.89063570 Ry

     total magnetization       =    -0.00 Bohr mag/cell
     absolute magnetization    =     0.06 Bohr mag/cell

[...]

     Magnetic moment per site  (integrated on atomic sphere of radius R)
     atom   1 (R=0.160)  charge=  4.5294  magn= -0.0000
     atom   2 (R=0.160)  charge=  4.5752  magn= -0.0000
     atom   3 (R=0.155)  charge=  4.3344  magn= -0.0000
     atom   4 (R=0.155)  charge=  4.4452  magn= -0.0000
     atom   5 (R=0.160)  charge=  4.6785  magn= -0.0000
     atom   6 (R=0.160)  charge=  5.4000  magn= -0.0000
     atom   7 (R=0.155)  charge=  3.6596  magn= -0.0000
     atom   8 (R=0.155)  charge=  3.3141  magn= -0.0000
     atom   9 (R=0.160)  charge=  4.7336  magn=  0.0000
     atom  10 (R=0.160)  charge=  4.7479  magn= -0.0000
     atom  11 (R=0.155)  charge=  4.2647  magn=  0.0000
     atom  12 (R=0.155)  charge=  4.6235  magn= -0.0000
     atom  13 (R=0.160)  charge=  5.3972  magn= -0.0000
     atom  14 (R=0.160)  charge=  5.3504  magn= -0.0000
     atom  15 (R=0.155)  charge=  3.4477  magn=  0.0000
     atom  16 (R=0.155)  charge=  3.6900  magn= -0.0000
     atom  17 (R=0.212)  charge=  1.0536  magn=  0.0000

     End of self-consistent calculation

 ------ SPIN UP ------------

          k = 0.0000 0.0000 0.0000 ( 26649 PWs)   bands (ev):

   -88.6819 -77.2026 -74.6701 -73.7983 -71.3122 -66.5980 -63.4869 -60.7552
   -59.5412 -57.3397 -56.9364 -56.3103 -54.2676 -51.8637 -49.0531 -46.3938
   -44.8233 -43.9782 -42.3945 -40.2620 -39.0978 -37.1223 -35.1016 -33.6400
   -31.9857 -30.9661 -30.0256 -28.5960 -27.8330 -26.6808 -26.4888 -24.7061
   -23.7370 -22.5163 -21.7342 -20.8194 -18.8652 -18.7574 -17.4559 -16.7505
   -15.7403 -15.5521 -14.2677 -13.8298 -12.7116 -11.3089 -10.9809 -10.4525
   -10.0498  -8.4199  -7.5438  -7.1865  -6.9769  -6.0567  -5.0778  -4.3867
    -4.1332  -2.7913  -2.2437  -1.5752  -1.1508   0.4611   0.8445   1.7551
     2.4347   2.9290   3.4511   4.9647   5.2702   6.5727   7.1768   7.8992
     8.5832   9.4282   9.8712  10.4423  10.8908  11.1116  12.5066  12.9242
    13.8062  15.0298  15.8143  16.1449  17.9207  18.8886  19.6409  20.4750
    20.8635  21.2971  21.9503  22.4534  23.2895  23.9998  24.1897  24.3103
    25.1833  25.3713  26.0920  26.4206  27.5910  27.8738  27.9750  28.4459
    29.2933  29.6269  30.5588  30.7134  31.0059  31.1592  31.6811  31.8919
    32.3775  33.0066  33.7970  34.0685  34.5720  35.0067  35.2090  35.7409
    36.0891

 ------ SPIN DOWN ----------

[...]

     the Fermi energy is    27.5468 ev

!    total energy              =   -1896.41250391 Ry
     estimated scf accuracy    <       0.00000080 Ry
     smearing contrib. (-TS)   =      -0.01751052 Ry
[...]
Ta            0.9013084356        0.1211212120        8.4106110025    0   0   0
Ta            2.6415926642        3.3452418198        8.4595496119    0   0   0
Zr            1.8442847182        2.6188909264        6.0000000000    0   0   0
Zr            0.1866550429        0.8943516698        9.3828635984    0   0   0
H             5.0004149270        4.0014025580        5.0010966221

     kinetic energy (Ekin) =           0.00285013 Ry
     temperature           =         300.00000000 K
     Ekin + Etot (const)   =       -1896.40965378 Ry

     File ./pwscf.msd.dat deleted, as requested

     Writing config-only to output data dir ./pwscf.save/
     NEW-OLD atomic charge density approx. for the potential

     Check: negative core charge=   -0.000004

     negative rho (up, down):  1.624E-01 1.624E-01
     Generating pointlists ...

[...]

     Threshold (ethr) on eigenvalues was too large:
     Diagonalizing with lowered threshold

     Davidson diagonalization with overlap
     ethr =  1.15E-08,  avg # of iterations =  1.0

[...]

     Writing config-only to output data dir ./pwscf.save/
     NEW-OLD atomic charge density approx. for the potential

     Check: negative core charge=   -0.000004

     negative rho (up, down):  1.624E-01 1.624E-01
     Generating pointlists ...

     Self-consistent Calculation

[...]

     Threshold (ethr) on eigenvalues was too large:
     Diagonalizing with lowered threshold

     Davidson diagonalization with overlap
     ethr =  1.03E-09,  avg # of iterations =  2.0

[...]

     total energy              =   -1896.41306654 Ry
     estimated scf accuracy    <       0.00000216 Ry

[...]

     iteration #  2     ecut=   120.00 Ry     beta= 0.70
     Davidson diagonalization with overlap
     ethr =  1.08E-09,  avg # of iterations =  1.0

[...]

     Magnetic moment per site  (integrated on atomic sphere of radius R)
     atom   1 (R=0.160)  charge=  4.5294  magn=  0.0000
     atom   2 (R=0.160)  charge=  4.5752  magn=  0.0000
     atom   3 (R=0.155)  charge=  4.3344  magn=  0.0000
     atom   4 (R=0.155)  charge=  4.4451  magn=  0.0000
     atom   5 (R=0.160)  charge=  4.6785  magn= -0.0000
     atom   6 (R=0.160)  charge=  5.4000  magn=  0.0000
     atom   7 (R=0.155)  charge=  3.6596  magn= -0.0000
     atom   8 (R=0.155)  charge=  3.3141  magn=  0.0000
     atom   9 (R=0.160)  charge=  4.7335  magn=  0.0000
     atom  10 (R=0.160)  charge=  4.7479  magn=  0.0000
     atom  11 (R=0.155)  charge=  4.2649  magn=  0.0000
     atom  12 (R=0.155)  charge=  4.6235  magn=  0.0000
     atom  13 (R=0.160)  charge=  5.3972  magn= -0.0000
     atom  14 (R=0.160)  charge=  5.3504  magn=  0.0000
     atom  15 (R=0.155)  charge=  3.4476  magn=  0.0000
     atom  16 (R=0.155)  charge=  3.6899  magn=  0.0000
     atom  17 (R=0.212)  charge=  1.0541  magn= -0.0000

     End of self-consistent calculation

 ------ SPIN UP ------------

[...]

 ------ SPIN DOWN ----------

          k = 0.0000 0.0000 0.0000 ( 26649 PWs)   bands (ev):

   -88.6685 -77.1891 -74.6570 -73.7852 -71.2992 -66.5852 -63.4746 -60.7427
   -59.5283 -57.3268 -56.9236 -56.2973 -54.2547 -51.8513 -49.0406 -46.3811
   -44.8110 -43.9657 -42.3818 -40.2498 -39.0854 -37.1100 -35.0886 -33.6273
   -31.9735 -30.9537 -30.0135 -28.5828 -27.8200 -26.6683 -26.4761 -24.6944
   -23.7244 -22.5038 -21.7213 -20.8068 -18.8533 -18.7446 -17.4438 -16.7379
   -15.7273 -15.5394 -14.2549 -13.8176 -12.7004 -11.2962 -10.9681 -10.4397
   -10.0370  -8.4074  -7.5316  -7.1740  -6.9644  -6.0439  -5.0636  -4.3743
    -4.1205  -2.7787  -2.2310  -1.5628  -1.1385   0.4731   0.8567   1.7674
     2.4474   2.9414   3.4636   4.9777   5.2817   6.5852   7.1892   7.9120
     8.5954   9.4409   9.8837  10.4556  10.9025  11.1235  12.5185  12.9365
    13.8177  15.0387  15.8262  16.1588  17.9266  18.9005  19.6489  20.4960
    20.8722  21.2966  21.9625  22.4652  23.3025  24.0143  24.2023  24.3240
    25.1975  25.3854  26.1016  26.4241  27.6023  27.8852  27.9872  28.4587
    29.3037  29.6388  30.5404  30.7274  31.0159  31.1623  31.6941  31.8976
    32.3930  32.9960  33.8001  34.0701  34.5817  35.0104  35.2234  35.7431
    36.0968

     the Fermi energy is    27.5582 ev

!    total energy              =   -1896.41306590 Ry
     estimated scf accuracy    <       0.00000079 Ry
     smearing contrib. (-TS)   =      -0.01750054 Ry
     internal energy E=F+TS    =   -1896.39556536 Ry

     total magnetization       =     0.00 Bohr mag/cell
     absolute magnetization    =     0.00 Bohr mag/cell

     convergence has been achieved in   2 iterations

     negative rho (up, down):  1.624E-01 1.624E-01

     Forces acting on atoms (cartesian axes, Ry/au):

     atom    1 type  1   force =    -1.68720533    2.44528644  -11.29209662
     atom    2 type  1   force =     1.64478374   -0.49454363    8.54494489
     atom    3 type  2   force =    -3.46855962    3.27497148  -12.26549960
     atom    4 type  2   force =     1.19373445    6.85960535   14.76781557
     atom    5 type  3   force =     5.11385226   -4.20674436   16.20743164
     atom    6 type  3   force =    -3.46786167   -4.91172359  -10.88397562
     atom    7 type  4   force =    -6.56266686   -3.55463703   -9.54551359
     atom    8 type  4   force =    -3.78141390   -2.41885472   14.29242905
     atom    9 type  1   force =    -0.44545110    1.70144063   -5.70935879
     atom   10 type  1   force =    -0.22452026    3.30994061   10.93666804
     atom   11 type  2   force =    10.67031575   -8.95759692   -8.44488957
     atom   12 type  2   force =    -2.11987844    0.25184343  -10.26773106
     atom   13 type  3   force =     1.93653183   -6.89013697    2.83069510
     atom   14 type  3   force =    -1.78680548   -0.37113173    4.86066205
     atom   15 type  4   force =     1.14916280    9.06458811  -14.91312370
     atom   16 type  4   force =     1.89080102    4.84124158   11.04006396
     atom   17 type  5   force =    -0.05481919    0.05645130   -0.15852174
     The non-local contrib.  to forces
     atom    1 type  1   force =     1.77417133   -0.89934952    1.30929880
     atom    2 type  1   force =    -0.39556552   -1.43740662   -0.82751710
     atom    3 type  2   force =    -0.31372560    0.38832659   -1.87841733
     atom    4 type  2   force =     0.43552498    0.66676380    2.52975679
     atom    5 type  3   force =    -1.88767338    1.76867740   -4.12457432
     atom    6 type  3   force =     0.98301716    1.81098027    0.76681860
     atom    7 type  4   force =    -1.51904380   -0.20385210   -2.07979971
     atom    8 type  4   force =    -0.52313905   -0.42027660    2.45241640
     atom    9 type  1   force =    -0.91279233    0.56764914    0.02652423
     atom   10 type  1   force =    -0.20048867   -2.25017899   -2.11608242
     atom   11 type  2   force =     1.29285865   -0.68115891   -1.67741360
     atom   12 type  2   force =    -0.30905390    0.16252305   -1.00298704
     atom   13 type  3   force =    -0.19650909    3.25089595    0.76872478
     atom   14 type  3   force =    -0.21410374    0.38188821   -0.54149901
     atom   15 type  4   force =     0.79134109    1.16344502   -2.39012694
     atom   16 type  4   force =     0.56994778    0.59727019    2.10017979
     atom   17 type  5   force =    -0.00432959   -0.00244147    0.06013606
     The ionic contribution  to forces
     atom    1 type  1   force =   -10.66662597   10.79272397 -181.10148955
     atom    2 type  1   force =     9.26542661   13.66388516  139.19076397
     atom    3 type  2   force =   -18.26776253    9.65887878 -381.01039970
     atom    4 type  2   force =    -4.05351113   24.13963942  397.08339970
     atom    5 type  3   force =    17.86057918  -21.69935774  435.98344241
     atom    6 type  3   force =     1.43711929  -13.05387149 -121.30522097
     atom    7 type  4   force =   -33.89591747  -12.23982999 -378.68950420
     atom    8 type  4   force =   -18.94716595  -14.80639399  494.10040800
     atom    9 type  1   force =     8.35710901    8.74878326 -124.45134513
     atom   10 type  1   force =    -6.39855793   19.21820093  163.74765075
     atom   11 type  2   force =    44.58808946  -33.39448594 -447.55134644
     atom   12 type  2   force =   -13.38178672   -5.37894975 -167.06633126
     atom   13 type  3   force =     8.88798140  -26.66492344  145.82949807
     atom   14 type  3   force =    -9.67165097  -15.82969532  151.82228057
     atom   15 type  4   force =    12.76323180   34.60408394 -487.67530427
     atom   16 type  4   force =    12.26765876   22.15208793  400.14156069
     atom   17 type  5   force =    -0.14421685    0.08922426  -39.04806265
     The local contribution  to forces
     atom    1 type  1   force =     7.06173865   -7.29969272  168.02087388
     atom    2 type  1   force =    -7.11419331  -12.63087147 -129.47759363
     atom    3 type  2   force =    15.09712853   -6.74793073  370.51448626
     atom    4 type  2   force =     4.80354180  -17.91679184 -384.72998035
     atom    5 type  3   force =   -10.67201520   15.57030308 -415.08949812
     atom    6 type  3   force =    -5.95769656    6.11986169  109.37624148
     atom    7 type  4   force =    28.75236162    8.85951246  371.10591223
     atom    8 type  4   force =    15.65818397   12.77497201 -482.10661561
     atom    9 type  1   force =    -7.85400778   -7.47338499  118.60478680
     atom   10 type  1   force =     6.28751568  -13.49598030 -150.25734551
     atom   11 type  2   force =   -35.11294352   25.02112813  440.69455456
     atom   12 type  2   force =    11.55263145    5.46743239  157.74988753
     atom   13 type  3   force =    -6.68095336   16.31122474 -143.71001695
     atom   14 type  3   force =     7.99412385   15.04613528 -146.31959877
     atom   15 type  4   force =   -12.37815564  -26.58816675  474.97762234
     atom   16 type  4   force =   -10.90094222  -17.86191425 -391.08890989
     atom   17 type  5   force =     0.09376672   -0.03026630   38.82889995
     The core correction contribution to forces
     atom    1 type  1   force =     0.14355115   -0.14844383    0.47646665
     atom    2 type  1   force =    -0.11089643   -0.09022818   -0.34245296
     atom    3 type  2   force =     0.01574516   -0.02431367    0.10506313
     atom    4 type  2   force =     0.00816889   -0.03001654   -0.11659405
     atom    5 type  3   force =    -0.18694805    0.15358546   -0.56305003
     atom    6 type  3   force =     0.06971273    0.21127693    0.27504801
     atom    7 type  4   force =     0.09996424    0.02945567    0.11393968
     atom    8 type  4   force =     0.03074753    0.03290927   -0.15448019
     atom    9 type  1   force =    -0.03572283   -0.14164171    0.10805197
     atom   10 type  1   force =     0.08707343   -0.16218050   -0.43924416
     atom   11 type  2   force =    -0.09772693    0.09687009    0.08482778
     atom   12 type  2   force =     0.01839209    0.00082365    0.04842164
     atom   13 type  3   force =    -0.07397884    0.21268162   -0.05966027
     atom   14 type  3   force =     0.10488815    0.03056404   -0.10258910
     atom   15 type  4   force =    -0.02718971   -0.11542336    0.17090874
     atom   16 type  4   force =    -0.04579448   -0.04622510   -0.11376876
     atom   17 type  5   force =     0.00000000    0.00000000    0.00000000
     The Hubbard contrib.    to forces
     atom    1 type  1   force =     0.00000000    0.00000000    0.00000000
     atom    2 type  1   force =     0.00000000    0.00000000    0.00000000
     atom    3 type  2   force =     0.00000000    0.00000000    0.00000000
     atom    4 type  2   force =     0.00000000    0.00000000    0.00000000
     atom    5 type  3   force =     0.00000000    0.00000000    0.00000000
     atom    6 type  3   force =     0.00000000    0.00000000    0.00000000
     atom    7 type  4   force =     0.00000000    0.00000000    0.00000000
     atom    8 type  4   force =     0.00000000    0.00000000    0.00000000
     atom    9 type  1   force =     0.00000000    0.00000000    0.00000000
     atom   10 type  1   force =     0.00000000    0.00000000    0.00000000
     atom   11 type  2   force =     0.00000000    0.00000000    0.00000000
     atom   12 type  2   force =     0.00000000    0.00000000    0.00000000
     atom   13 type  3   force =     0.00000000    0.00000000    0.00000000
     atom   14 type  3   force =     0.00000000    0.00000000    0.00000000
     atom   15 type  4   force =     0.00000000    0.00000000    0.00000000
     atom   16 type  4   force =     0.00000000    0.00000000    0.00000000
     atom   17 type  5   force =     0.00000000    0.00000000    0.00000000
     The SCF correction term to forces
     atom    1 type  1   force =    -0.00000000    0.00000000    0.00000000
     atom    2 type  1   force =     0.00000000    0.00000000    0.00000000
     atom    3 type  2   force =     0.00000000   -0.00000000    0.00000000
     atom    4 type  2   force =     0.00000000   -0.00000000    0.00000000
     atom    5 type  3   force =    -0.00000000    0.00000000    0.00000000
     atom    6 type  3   force =     0.00000000   -0.00000000    0.00000000
     atom    7 type  4   force =    -0.00000000    0.00000000    0.00000000
     atom    8 type  4   force =    -0.00000000   -0.00000000    0.00000000
     atom    9 type  1   force =    -0.00000000    0.00000000    0.00000000
     atom   10 type  1   force =    -0.00000000    0.00000000    0.00000000
     atom   11 type  2   force =     0.00000000    0.00000000    0.00000000
     atom   12 type  2   force =    -0.00000000   -0.00000000    0.00000000
     atom   13 type  3   force =     0.00000000   -0.00000000    0.00000000
     atom   14 type  3   force =    -0.00000000   -0.00000000    0.00000000
     atom   15 type  4   force =    -0.00000000    0.00000000    0.00000000
     atom   16 type  4   force =    -0.00000000   -0.00000000    0.00000000
     atom   17 type  5   force =    -0.00000856   -0.00009956    0.00019035

     Total force =     0.176978     Total SCF correction =     0.000215

     Entering Dynamics:    iteration =    10
                           time      =   0.0010 pico-seconds

ATOMIC_POSITIONS (angstrom)
Hf            0.0858800679       -0.7951436715        7.4532072815    0   0   0
Hf            0.9880709739        1.9014415882        8.3624579711    0   0   0
Nb            1.0746989219        0.1356535858        6.8196389631    0   0   0
Nb            1.6491103981        0.8626804318        9.1943310858    0   0   0
Ta            0.0709744107       -0.7820475991        9.3858007313    0   0   0
Ta            1.9524714937        0.9993933557        7.6598559185    0   0   0
Zr            0.9976274959        1.7451739843        6.6557981874    0   0   0
Zr            2.5198328619        0.2094691683       10.0174953943    0   0   0
Hf            1.9380429646       -0.7197681019        7.5485206618    0   0   0
Hf           -0.6483186390        1.7040463621        8.4530515930    0   0   0
Nb            2.4216282335        1.6043757567        6.4559262597    0   0   0
Nb            0.1475903912        0.9184995235        7.5588298057    0   0   0
Ta            0.9013084356        0.1211212120        8.4106110025    0   0   0
Ta            2.6415926642        3.3452418198        8.4595496119    0   0   0
Zr            1.8442847182        2.6188909264        6.0000000000    0   0   0
Zr            0.1866550429        0.8943516698        9.3828635984    0   0   0
H             5.0013148261        4.0171400610        5.0027175147

     kinetic energy (Ekin) =           0.00341219 Ry
     temperature           =         359.16116829 K
     Ekin + Etot (const)   =       -1896.40965372 Ry

     The maximum number of steps has been reached.

     End of molecular dynamics calculation

     diffusion coefficients :
     atom     1   D =       0.00000000 cm^2/s
     atom     2   D =       0.00000000 cm^2/s
     atom     3   D =       0.00000000 cm^2/s
     atom     4   D =       0.00000000 cm^2/s
     atom     5   D =       0.00000000 cm^2/s
     atom     6   D =       0.00000000 cm^2/s
     atom     7   D =       0.00000000 cm^2/s
     atom     8   D =       0.00000000 cm^2/s
     atom     9   D =       0.00000000 cm^2/s
     atom    10   D =       0.00000000 cm^2/s
     atom    11   D =       0.00000000 cm^2/s
     atom    12   D =       0.00000000 cm^2/s
     atom    13   D =       0.00000000 cm^2/s
     atom    14   D =       0.00000000 cm^2/s
     atom    15   D =       0.00000000 cm^2/s
     atom    16   D =       0.00000000 cm^2/s
     atom    17   D =       0.00000522 cm^2/s

     < D > =       0.00000522 cm^2/s

     Writing all to output data dir ./pwscf.save/

     General routines

     Parallel routines

   This run was terminated on:  19:26:44  22May2023

   JOB DONE.