     Program PWSCF v.7.2 starts on 30May2023 at 17:20:49

     Reading input from HfNbTaZr_lattice_16_MD_nsteps_5.in
Warning: card &CELL ignored
Warning: card / ignored

     Current dimensions of program PWSCF are:
     Max number of different atomic species (ntypx) = 10
     Max number of k-points (npk) =  40000
     Max angular momentum in pseudopotentials (lmaxx) =  4

     File ./pwscf.md deleted, as requested

     gamma-point specific algorithms are used

     R & G space division:  proc/nbgrp/npool/nimage =      12
     Subspace diagonalization in iterative solution of the eigenvalue problem:
     a serial algorithm will be used

     Using Slab Decomposition

     bravais-lattice index     =            0
     lattice parameter (alat)  =      13.8706  a.u.
     unit-cell volume          =    5060.0776 (a.u.)^3
     number of atoms/cell      =           17
     number of atomic types    =            5
     number of electrons       =       201.00
     number of Kohn-Sham states=          121
     kinetic-energy cutoff     =     120.0000  Ry
     charge density cutoff     =     480.0000  Ry
     scf convergence threshold =      1.0E-04
     mixing beta               =       0.7000
     number of iterations used =            8  TF        mixing
     energy convergence thresh.=      0.0E+00
     force convergence thresh. =      0.0E+00
     Exchange-correlation=  SLA  PW   PBX  PBC
                           (   1   4   3   4   0   0   0)
     nstep                     =            5

     celldm(1)=  13.870590  celldm(2)=   0.000000  celldm(3)=   0.000000
     celldm(4)=   0.000000  celldm(5)=   0.000000  celldm(6)=   0.000000

     crystal axes: (cart. coord. in units of alat)
               a(1) = (   1.000000   0.000000   0.000000 )
               a(2) = (   0.000000   1.000000   0.000000 )
               a(3) = (   0.000000   0.000000   1.896149 )

     reciprocal axes: (cart. coord. in units 2 pi/alat)
               b(1) = (  1.000000  0.000000  0.000000 )
               b(2) = (  0.000000  1.000000  0.000000 )
               b(3) = (  0.000000  0.000000  0.527385 )

     PseudoPot. # 1 for Hf read from file:
     q-e/pseudo/hf_pbe_v1.uspp.F.UPF
     MD5 check sum: 8ee9378dfe14276e333edf04c5e4aa26
     Pseudo is Ultrasoft + core correction, Zval = 12.0
     Generated by new atomic code, or converted to UPF format
     Using radial grid of  921 points,  8 beta functions with:
                l(1) =   0
                l(2) =   0
                l(3) =   0
                l(4) =   1
                l(5) =   1
                l(6) =   2
                l(7) =   2
                l(8) =   3
     Q(r) pseudized with  6 coefficients,  rinner =    1.200   1.200   1.200
                                                       1.200   1.200   1.200
                                                       1.200

     PseudoPot. # 2 for Nb read from file:
     q-e/pseudo/nb_pbe_v1.uspp.F.UPF
     MD5 check sum: 573aab8a2fa660278ed4a62cd769473f
     Pseudo is Ultrasoft + core correction, Zval = 13.0
     Generated by new atomic code, or converted to UPF format
     Using radial grid of  887 points,  6 beta functions with:
                l(1) =   0
                l(2) =   0
                l(3) =   1
                l(4) =   1
                l(5) =   2
                l(6) =   2
     Q(r) pseudized with  6 coefficients,  rinner =    1.000   1.000   1.000
                                                       1.000   1.000

     PseudoPot. # 3 for Ta read from file:
     q-e/pseudo/ta_pbe_v1.uspp.F.UPF
     MD5 check sum: f8bbe9446314a3b8ea5d9f3e3836c939
     Pseudo is Ultrasoft + core correction, Zval = 13.0
     Generated by new atomic code, or converted to UPF format
     Using radial grid of  921 points,  7 beta functions with:
                l(1) =   0
                l(2) =   0
                l(3) =   1
                l(4) =   1
                l(5) =   2
                l(6) =   2
                l(7) =   3
     Q(r) pseudized with  6 coefficients,  rinner =    1.300   1.300   1.300
                                                       1.300   1.300   1.300
                                                       1.300

     PseudoPot. # 4 for Zr read from file:
     q-e/pseudo/zr_pbe_v1.uspp.F.UPF
     MD5 check sum: 5db81b1e868ab7776c4564c113de050b
     Pseudo is Ultrasoft + core correction, Zval = 12.0
     Generated by new atomic code, or converted to UPF format
     Using radial grid of  887 points,  6 beta functions with:
                l(1) =   0
                l(2) =   0
                l(3) =   1
                l(4) =   1
                l(5) =   2
                l(6) =   2
     Q(r) pseudized with  6 coefficients,  rinner =    1.200   1.200   1.200
                                                       1.200   1.200

     PseudoPot. # 5 for H  read from file:
     q-e/pseudo/h_pbe_v1.4.uspp.F.UPF
     MD5 check sum: 761ae9a214b05c3daf00ab9f6b793d6f
     Pseudo is Ultrasoft, Zval =  1.0
     Generated by new atomic code, or converted to UPF format
     Using radial grid of  615 points,  2 beta functions with:
                l(1) =   0
                l(2) =   0
     Q(r) pseudized with  8 coefficients,  rinner =    0.700

     atomic species   valence    mass     pseudopotential
        Hf            12.00   178.49000     Hf( 1.00)
        Nb            13.00    92.90637     Nb( 1.00)
        Ta            13.00   180.94788     Ta( 1.00)
        Zr            12.00    91.22400     Zr( 1.00)
        H              1.00     2.01400     H ( 1.00)

     Starting magnetic structure
     atomic species   magnetization
        Hf           0.000
        Nb           0.000
        Ta           0.000
        Zr           0.000
        H            0.000

     No symmetry found

   Cartesian axes

     site n.     atom                  positions (alat units)
         1           Hf  tau(   1) = (   0.1249797   0.1249746   0.8174773  )
         2           Nb  tau(   2) = (   0.1250259   0.3749771   1.0599394  )
         3           Ta  tau(   3) = (   0.3751799   0.1250253   1.0787069  )
         4           Zr  tau(   4) = (   0.3749599   0.3750193   0.8264272  )
         5           Hf  tau(   5) = (   0.1249742   0.6249777   0.8174756  )
         6           Nb  tau(   6) = (   0.1250266   0.8749767   1.0599171  )
         7           Ta  tau(   7) = (   0.3751804   0.6250229   1.0787032  )
         8           Zr  tau(   8) = (   0.3749645   0.8750292   0.8264090  )
         9           Hf  tau(   9) = (   0.6249795   0.1249703   0.8174402  )
        10           Nb  tau(  10) = (   0.6250164   0.3749776   1.0600053  )
        11           Ta  tau(  11) = (   0.8747978   0.1250218   1.0787100  )
        12           Zr  tau(  12) = (   0.8750615   0.3750194   0.8264039  )
        13           Hf  tau(  13) = (   0.6249842   0.6249832   0.8174387  )
        14           Nb  tau(  14) = (   0.6250158   0.8749771   1.0599880  )
        15           Ta  tau(  15) = (   0.8747961   0.6250217   1.0787071  )
        16           Zr  tau(  16) = (   0.8750574   0.8750259   0.8263861  )
        17           H   tau(  17) = (   0.6811989   0.5449591   1.7438692  )

     number of k points=     1  Gaussian smearing, width (Ry)=  0.0220
                       cart. coord. in units 2pi/alat
        k(    1) = (   0.0000000   0.0000000   0.0000000), wk =   1.0000000

     Check: negative core charge=   -0.000002
     Generating pointlists ...
     new r_m :   0.1437 (alat units)  1.9925 (a.u.) for type    1
     new r_m :   0.1411 (alat units)  1.9571 (a.u.) for type    2
     new r_m :   0.1460 (alat units)  2.0247 (a.u.) for type    3
     new r_m :   0.1411 (alat units)  1.9571 (a.u.) for type    4
     new r_m :   0.2877 (alat units)  3.9901 (a.u.) for type    5

     Initial potential from superposition of free atoms

     starting charge     192.9760, renormalised to     201.0000

     negative rho (up, down):  5.376E-01 5.376E-01
     Starting wfcs are  209 randomized atomic wfcs

     Self-consistent Calculation

     iteration #  1     ecut=   120.00 Ry     beta= 0.70
     Davidson diagonalization with overlap
     ethr =  1.00E-02,  avg # of iterations =  6.0

     negative rho (up, down):  6.914E-01 6.936E-01

     total energy              =   -2060.76605420 Ry
     estimated scf accuracy    <     197.48515468 Ry

     total magnetization       =    -0.00 Bohr mag/cell
     absolute magnetization    =     0.06 Bohr mag/cell

[...]

     iteration # 21     ecut=   120.00 Ry     beta= 0.70
     Davidson diagonalization with overlap
     c_bands:  1 eigenvalues not converged
     ethr =  1.19E-06,  avg # of iterations = 11.5

[...]

     Magnetic moment per site  (integrated on atomic sphere of radius R)
     atom   1 (R=0.144)  charge=  9.4307  magn=  0.0000
     atom   2 (R=0.141)  charge= 10.4123  magn= -0.0000
     atom   3 (R=0.146)  charge= 10.3490  magn= -0.0000
     atom   4 (R=0.141)  charge=  9.3939  magn=  0.0000
     atom   5 (R=0.144)  charge=  9.4305  magn=  0.0000
     atom   6 (R=0.141)  charge= 10.4129  magn= -0.0000
     atom   7 (R=0.146)  charge= 10.3490  magn=  0.0000
     atom   8 (R=0.141)  charge=  9.3938  magn= -0.0000
     atom   9 (R=0.144)  charge=  9.4306  magn=  0.0000
     atom  10 (R=0.141)  charge= 10.4132  magn=  0.0000
     atom  11 (R=0.146)  charge= 10.3490  magn=  0.0000
     atom  12 (R=0.141)  charge=  9.3937  magn=  0.0000
     atom  13 (R=0.144)  charge=  9.4304  magn=  0.0000
     atom  14 (R=0.141)  charge= 10.4141  magn= -0.0000
     atom  15 (R=0.146)  charge= 10.3485  magn= -0.0000
     atom  16 (R=0.141)  charge=  9.3937  magn= -0.0000
     atom  17 (R=0.288)  charge=  1.1619  magn= -0.0031

     End of self-consistent calculation

 ------ SPIN UP ------------

          k = 0.0000 0.0000 0.0000 ( 56136 PWs)   bands (ev):

   -63.4676 -63.4636 -63.4634 -63.4602 -56.7919 -56.7868 -56.7827 -56.7793
   -50.0577 -50.0460 -50.0425 -50.0389 -43.5135 -43.4973 -43.4952 -43.4827
   -30.6491 -30.6352 -30.4816 -30.4616 -30.3636 -30.3615 -30.3274 -30.3076
   -30.1074 -30.0769 -30.0601 -30.0589 -27.1975 -26.9628 -26.8614 -26.7864
   -26.7267 -26.7199 -26.6416 -26.6333 -26.5296 -26.5245 -26.4798 -26.2960
   -26.2402 -25.9301 -25.8433 -25.8426 -25.6140 -25.5241 -25.3741 -25.3659
   -25.3420 -25.3365 -25.2478 -25.2344 -22.0388 -21.9490 -21.8765 -21.8585
   -21.6730 -21.6327 -21.5817 -21.5752 -21.5334 -21.4676 -21.4347 -21.3699
    -1.9375  -1.2600  -0.7194  -0.5951  -0.4917  -0.3876   0.0960   0.6243
     0.9074   1.0128   1.0344   1.0346   1.1018   1.1201   1.4088   1.7784
     1.7935   1.9323   2.0057   2.0710   2.1326   2.5132   2.7136   2.8467
     2.9512   3.1020   3.1334   3.1591   3.1879   3.2299   3.3842   3.4073
     3.6164   3.6600   3.8103   3.8166   3.9199   4.0090   4.3709   4.3715
     4.7458   4.8445   4.8727   5.0549   5.0996   5.1758   5.1824   5.3703
     5.5215   5.8180   6.0317   6.1264   6.1645   6.1668   6.2549   6.2619
     6.3071

 ------ SPIN DOWN ----------

[...]

     the Fermi energy is     3.9707 ev

!    total energy              =   -2069.56166829 Ry
     estimated scf accuracy    <       0.00001852 Ry
[...]
Zr            6.4229515852        2.7526427058        6.0658048318    0   0   0
Hf            4.5873841500        4.5873764414        6.0000000000    0   0   0
Nb            4.5876157176        6.4223321265        7.7803118750    0   0   0
Ta            6.4210034632        4.5876595310        7.9177105287    0   0   0
Zr            6.4229215841        6.4226899848        6.0656737289    0   0   0
H             5.0000000036        3.9999999846       12.7727615170

     kinetic energy (Ekin) =           0.55137389 Ry
     temperature           =       58036.70163102 K
     Ekin + Etot (const)   =       -2069.01029440 Ry

     File ./pwscf.msd.dat deleted, as requested

     Writing config-only to output data dir ./pwscf.save/
     NEW-OLD atomic charge density approx. for the potential

     Check: negative core charge=   -0.000002

     negative rho (up, down):  5.271E-01 5.271E-01
     Generating pointlists ...

[...]

     negative rho (up, down):  5.271E-01 5.271E-01
     Generating pointlists ...
     new r_m :   0.2847 (alat units)  3.9496 (a.u.) for type    5

[...]

     negative rho (up, down):  5.271E-01 5.271E-01
     Generating pointlists ...

[...]

     Writing config-only to output data dir ./pwscf.save/
     NEW-OLD atomic charge density approx. for the potential

     Check: negative core charge=   -0.000002

     negative rho (up, down):  5.271E-01 5.271E-01
     Generating pointlists ...
     new r_m :   0.2818 (alat units)  3.9092 (a.u.) for type    5

     Self-consistent Calculation

[...]

     total energy              =   -2069.56220932 Ry
     estimated scf accuracy    <       0.00071572 Ry

[...]

     iteration # 10     ecut=   120.00 Ry     beta= 0.70
     Davidson diagonalization with overlap
     ethr =  3.05E-07,  avg # of iterations =  1.0

[...]

     Magnetic moment per site  (integrated on atomic sphere of radius R)
     atom   1 (R=0.144)  charge=  9.4306  magn= -0.0000
     atom   2 (R=0.141)  charge= 10.4127  magn=  0.0000
     atom   3 (R=0.146)  charge= 10.3499  magn= -0.0000
     atom   4 (R=0.141)  charge=  9.3937  magn= -0.0000
     atom   5 (R=0.144)  charge=  9.4305  magn= -0.0000
     atom   6 (R=0.141)  charge= 10.4130  magn=  0.0000
     atom   7 (R=0.146)  charge= 10.3497  magn= -0.0000
     atom   8 (R=0.141)  charge=  9.3936  magn=  0.0000
     atom   9 (R=0.144)  charge=  9.4305  magn= -0.0000
     atom  10 (R=0.141)  charge= 10.4140  magn= -0.0000
     atom  11 (R=0.146)  charge= 10.3498  magn= -0.0000
     atom  12 (R=0.141)  charge=  9.3935  magn= -0.0000
     atom  13 (R=0.144)  charge=  9.4303  magn= -0.0000
     atom  14 (R=0.141)  charge= 10.4144  magn= -0.0000
     atom  15 (R=0.146)  charge= 10.3493  magn= -0.0000
     atom  16 (R=0.141)  charge=  9.3935  magn= -0.0000
     atom  17 (R=0.282)  charge=  1.1552  magn= -0.0038

     End of self-consistent calculation

 ------ SPIN UP ------------

[...]

 ------ SPIN DOWN ----------

          k = 0.0000 0.0000 0.0000 ( 56136 PWs)   bands (ev):

   -63.4678 -63.4638 -63.4634 -63.4603 -56.7889 -56.7837 -56.7797 -56.7763
   -50.0568 -50.0450 -50.0419 -50.0382 -43.5097 -43.4935 -43.4914 -43.4789
   -30.6487 -30.6349 -30.4813 -30.4613 -30.3633 -30.3613 -30.3272 -30.3074
   -30.1076 -30.0770 -30.0602 -30.0592 -27.1954 -26.9614 -26.8598 -26.7847
   -26.7248 -26.7189 -26.6402 -26.6323 -26.5281 -26.5231 -26.4783 -26.2950
   -26.2371 -25.9276 -25.8402 -25.8396 -25.6119 -25.5216 -25.3722 -25.3637
   -25.3395 -25.3339 -25.2453 -25.2318 -22.0351 -21.9452 -21.8729 -21.8549
   -21.6693 -21.6290 -21.5781 -21.5716 -21.5297 -21.4640 -21.4310 -21.3663
    -1.9359  -1.2586  -0.7168  -0.5919  -0.4898  -0.3856   0.0983   0.6261
     0.9090   1.0149   1.0363   1.0367   1.1031   1.1217   1.4105   1.7810
     1.7957   1.9350   2.0081   2.0731   2.1348   2.5155   2.7158   2.8490
     2.9538   3.1036   3.1351   3.1613   3.1873   3.2322   3.3863   3.4093
     3.6183   3.6617   3.8122   3.8186   3.9233   4.0120   4.3715   4.3722
     4.7515   4.8463   4.8744   5.0568   5.1006   5.1775   5.1840   5.3727
     5.5228   5.8206   6.0322   6.1271   6.1655   6.1691   6.2567   6.2628
     6.3087

     the Fermi energy is     3.9735 ev

!    total energy              =   -2069.56220408 Ry
     estimated scf accuracy    <       0.00004938 Ry
     smearing contrib. (-TS)   =      -0.05522432 Ry
     internal energy E=F+TS    =   -2069.50697976 Ry

     total magnetization       =    -0.00 Bohr mag/cell
     absolute magnetization    =     0.00 Bohr mag/cell

     convergence has been achieved in  10 iterations

     negative rho (up, down):  5.271E-01 5.271E-01

     Forces acting on atoms (cartesian axes, Ry/au):

     atom    1 type  1   force =     0.00009646    0.00005170   -0.33637259
     atom    2 type  2   force =     0.00005307    0.00010337    0.43484038
     atom    3 type  3   force =    -0.00059486   -0.00020142    0.29257254
     atom    4 type  4   force =     0.00035354    0.00004469   -0.39045239
     atom    5 type  1   force =     0.00011393    0.00003203   -0.33666476
     atom    6 type  2   force =    -0.00003011   -0.00003123    0.43486436
     atom    7 type  3   force =    -0.00078102    0.00014167    0.29346435
     atom    8 type  4   force =     0.00047453   -0.00019434   -0.39026999
     atom    9 type  1   force =     0.00003387   -0.00005796   -0.33732668
     atom   10 type  2   force =     0.00003647   -0.00014686    0.43536966
     atom   11 type  3   force =     0.00055391   -0.00026138    0.29267405
     atom   12 type  4   force =    -0.00047963    0.00002465   -0.39055510
     atom   13 type  1   force =     0.00000527    0.00019385   -0.33795619
     atom   14 type  2   force =     0.00010892    0.00029889    0.43484079
     atom   15 type  3   force =     0.00066878    0.00019027    0.29423644
     atom   16 type  4   force =    -0.00062005   -0.00015158   -0.39032856
     atom   17 type  5   force =     0.00000692   -0.00003636   -0.00293631
     The non-local contrib.  to forces
     atom    1 type  1   force =    -0.00014662   -0.00041625   -0.25609222
     atom    2 type  2   force =     0.00026249   -0.00004975   -0.24069154
     atom    3 type  3   force =     0.00019651    0.00040165    0.24858536
     atom    4 type  4   force =    -0.00055282    0.00004101    0.04564959
     atom    5 type  1   force =    -0.00018891   -0.00054522   -0.25629926
     atom    6 type  2   force =     0.00028639    0.00028580   -0.24104744
     atom    7 type  3   force =     0.00126335   -0.00006980    0.25090598
     atom    8 type  4   force =    -0.00031860    0.00001836    0.04620378
     atom    9 type  1   force =    -0.00024730   -0.00021180   -0.25725713
     atom   10 type  2   force =    -0.00002865    0.00048915   -0.23837595
     atom   11 type  3   force =    -0.00076674    0.00060649    0.24953403
     atom   12 type  4   force =     0.00065113    0.00010065    0.04586751
     atom   13 type  1   force =    -0.00028104   -0.00052722   -0.25662201
     atom   14 type  2   force =    -0.00008075   -0.00020782   -0.23947679
     atom   15 type  3   force =    -0.00187812   -0.00026756    0.25218688
     atom   16 type  4   force =     0.00046347   -0.00003784    0.04606497
     atom   17 type  5   force =     0.00001561    0.00000376   -0.00055192
     The ionic contribution  to forces
     atom    1 type  1   force =     0.00414001    0.00142154  -58.12699346
     atom    2 type  2   force =     0.00377661   -0.01367907   53.44229693
     atom    3 type  3   force =    -0.06648554   -0.01771836   59.78598258
     atom    4 type  4   force =    -0.01074917   -0.00879825  -55.60447734
     atom    5 type  1   force =     0.00599382    0.00562324  -58.12994909
     atom    6 type  2   force =     0.00195725    0.02069942   53.45176031
     atom    7 type  3   force =    -0.07858968    0.00999967   59.74145276
     atom    8 type  4   force =    -0.01139508    0.00252345  -55.60685963
     atom    9 type  1   force =     0.00030600    0.00202318  -58.17461665
     atom   10 type  2   force =    -0.01072753   -0.02477541   53.38355965
     atom   11 type  3   force =     0.07203335   -0.01964869   59.77228186
     atom   12 type  4   force =     0.00727450   -0.01062533  -55.60964803
     atom   13 type  1   force =    -0.00154511    0.00495081  -58.17921856
     atom   14 type  2   force =    -0.00856056    0.03099044   53.41226363
     atom   15 type  3   force =     0.08499485    0.01278537   59.71655514
     atom   16 type  4   force =     0.00784018    0.00445961  -55.61166309
     atom   17 type  5   force =    -0.00026390   -0.00023164    2.33727300
     The local contribution  to forces
     atom    1 type  1   force =    -0.00382902   -0.00132436   58.06616361
     atom    2 type  2   force =    -0.00377322    0.01364353  -52.79451633
     atom    3 type  3   force =     0.06574047    0.01626598  -59.78209237
     atom    4 type  4   force =     0.01155694    0.00867423   55.18074060
     atom    5 type  1   force =    -0.00561649   -0.00458171   58.06899591
     atom    6 type  2   force =    -0.00209741   -0.02082209  -52.80351222
     atom    7 type  3   force =     0.07649698   -0.00897037  -59.73917275
     atom    8 type  4   force =     0.01212362   -0.00261669   55.18326901
     atom    9 type  1   force =    -0.00007355   -0.00232245   58.11392322
     atom   10 type  2   force =     0.01058312    0.02385651  -52.73778631
     atom   11 type  3   force =    -0.07071057    0.01789472  -59.76930704
     atom   12 type  4   force =    -0.00830725    0.01041586   55.18551824
     atom   13 type  1   force =     0.00179003   -0.00374166   58.11733337
     atom   14 type  2   force =     0.00856979   -0.03019892  -52.76576918
     atom   15 type  3   force =    -0.08235370   -0.01147176  -59.71488895
     atom   16 type  4   force =    -0.00885572   -0.00445237   55.18806978
     atom   17 type  5   force =     0.00025532    0.00019417   -2.33991783
     The core correction contribution to forces
     atom    1 type  1   force =     0.00000730   -0.00003728   -0.01834815
     atom    2 type  2   force =    -0.00001239    0.00000154    0.02244749
     atom    3 type  3   force =    -0.00013699    0.00001378    0.03458388
     atom    4 type  4   force =     0.00004018   -0.00000028   -0.01146116
     atom    5 type  1   force =     0.00000836   -0.00004950   -0.01833185
     atom    6 type  2   force =    -0.00001040   -0.00001523    0.02244741
     atom    7 type  3   force =    -0.00014712    0.00002408    0.03465536
     atom    8 type  4   force =     0.00002558    0.00000566   -0.01148259
     atom    9 type  1   force =    -0.00002536    0.00002634   -0.01822879
     atom   10 type  2   force =     0.00000849   -0.00000994    0.02239143
     atom   11 type  3   force =     0.00009361    0.00002137    0.03461755
     atom   12 type  4   force =    -0.00003913   -0.00000420   -0.01147696
     atom   13 type  1   force =    -0.00004061   -0.00005483   -0.01835907
     atom   14 type  2   force =     0.00000796   -0.00000590    0.02240445
     atom   15 type  3   force =     0.00011305    0.00002452    0.03466173
     atom   16 type  4   force =    -0.00002789    0.00000944   -0.01147899
     atom   17 type  5   force =     0.00000000    0.00000000    0.00000000
     The Hubbard contrib.    to forces
     atom    1 type  1   force =     0.00000000    0.00000000    0.00000000
     atom    2 type  2   force =     0.00000000    0.00000000    0.00000000
     atom    3 type  3   force =     0.00000000    0.00000000    0.00000000
     atom    4 type  4   force =     0.00000000    0.00000000    0.00000000
     atom    5 type  1   force =     0.00000000    0.00000000    0.00000000
     atom    6 type  2   force =     0.00000000    0.00000000    0.00000000
     atom    7 type  3   force =     0.00000000    0.00000000    0.00000000
     atom    8 type  4   force =     0.00000000    0.00000000    0.00000000
     atom    9 type  1   force =     0.00000000    0.00000000    0.00000000
     atom   10 type  2   force =     0.00000000    0.00000000    0.00000000
     atom   11 type  3   force =     0.00000000    0.00000000    0.00000000
     atom   12 type  4   force =     0.00000000    0.00000000    0.00000000
     atom   13 type  1   force =     0.00000000    0.00000000    0.00000000
     atom   14 type  2   force =     0.00000000    0.00000000    0.00000000
     atom   15 type  3   force =     0.00000000    0.00000000    0.00000000
     atom   16 type  4   force =     0.00000000    0.00000000    0.00000000
     atom   17 type  5   force =     0.00000000    0.00000000    0.00000000
     The SCF correction term to forces
     atom    1 type  1   force =    -0.00000000    0.00000000   -0.00000000
     atom    2 type  2   force =    -0.00000000    0.00000000    0.00000000
     atom    3 type  3   force =     0.00000000    0.00000000    0.00000000
     atom    4 type  4   force =     0.00000000    0.00000000   -0.00000000
     atom    5 type  1   force =    -0.00000000   -0.00000000   -0.00000000
     atom    6 type  2   force =    -0.00000000   -0.00000000    0.00000000
     atom    7 type  3   force =     0.00000000   -0.00000000    0.00000000
     atom    8 type  4   force =     0.00000000   -0.00000000   -0.00000000
     atom    9 type  1   force =     0.00000000    0.00000000   -0.00000000
     atom   10 type  2   force =     0.00000000    0.00000000    0.00000000
     atom   11 type  3   force =    -0.00000000    0.00000000    0.00000000
     atom   12 type  4   force =    -0.00000000    0.00000000   -0.00000000
     atom   13 type  1   force =     0.00000000   -0.00000000   -0.00000000
     atom   14 type  2   force =     0.00000000   -0.00000000    0.00000000
     atom   15 type  3   force =    -0.00000000   -0.00000000    0.00000000
     atom   16 type  4   force =    -0.00000000   -0.00000000   -0.00000000
     atom   17 type  5   force =     0.00000026   -0.00000243    0.00016873

     Total force =     0.002937     Total SCF correction =     0.000169

     Entering Dynamics:    iteration =     5
                           time      =   0.0005 pico-seconds

ATOMIC_POSITIONS (angstrom)
Hf            0.9173507110        0.9173135972        6.0002837354    0   0   0
Nb            0.9176900085        2.7523320100        7.7799550803    0   0   0
Ta            2.7538208285        0.9176860149        7.9177084703    0   0   0
Zr            2.7522059512        2.7526418480        6.0659757673    0   0   0
Hf            0.9173105916        4.5873364617        6.0002711019    0   0   0
Nb            0.9176950052        6.4223291151        7.7797918918    0   0   0
Ta            2.7538243094        4.5876680102        7.9176812404    0   0   0
Zr            2.7522395759        6.4227147098        6.0658425039    0   0   0
Hf            4.5873495791        0.9172816749        6.0000109568    0   0   0
Nb            4.5876207816        2.7523359852        7.7804388155    0   0   0
Ta            6.4210161579        0.9176597836        7.9177312144    0   0   0
Zr            6.4229515852        2.7526427058        6.0658048318    0   0   0
Hf            4.5873841500        4.5873764414        6.0000000000    0   0   0
Nb            4.5876157176        6.4223321265        7.7803118750    0   0   0
Ta            6.4210034632        4.5876595310        7.9177105287    0   0   0
Zr            6.4229215841        6.4226899848        6.0656737289    0   0   0
H             5.0000001073        3.9999995368       12.6637706003

     kinetic energy (Ekin) =           0.55194374 Ry
     temperature           =       58096.68226076 K
     Ekin + Etot (const)   =       -2069.01026034 Ry

     The maximum number of steps has been reached.

     End of molecular dynamics calculation

     diffusion coefficients :
     atom     1   D =       0.00000000 cm^2/s
     atom     2   D =       0.00000000 cm^2/s
     atom     3   D =       0.00000000 cm^2/s
     atom     4   D =       0.00000000 cm^2/s
     atom     5   D =       0.00000000 cm^2/s
     atom     6   D =       0.00000000 cm^2/s
     atom     7   D =       0.00000000 cm^2/s
     atom     8   D =       0.00000000 cm^2/s
     atom     9   D =       0.00000000 cm^2/s
     atom    10   D =       0.00000000 cm^2/s
     atom    11   D =       0.00000000 cm^2/s
     atom    12   D =       0.00000000 cm^2/s
     atom    13   D =       0.00000000 cm^2/s
     atom    14   D =       0.00000000 cm^2/s
     atom    15   D =       0.00000000 cm^2/s
     atom    16   D =       0.00000000 cm^2/s
     atom    17   D =       0.00060891 cm^2/s

     < D > =       0.00060891 cm^2/s

     Writing all to output data dir ./pwscf.save/

     General routines

     Parallel routines

   This run was terminated on:  17:44: 7  30May2023

   JOB DONE.