     Program PWSCF v.7.2 starts on 30May2023 at 17:57:56

     Reading input from HfNbTaZr_lattice_16_MD_nsteps_20.in
Warning: card &CELL ignored
Warning: card / ignored

     Current dimensions of program PWSCF are:
     Max number of different atomic species (ntypx) = 10
     Max number of k-points (npk) =  40000
     Max angular momentum in pseudopotentials (lmaxx) =  4

     File ./pwscf.update deleted, as requested

     File ./pwscf.md deleted, as requested

     gamma-point specific algorithms are used

     R & G space division:  proc/nbgrp/npool/nimage =      12
     Subspace diagonalization in iterative solution of the eigenvalue problem:
     a serial algorithm will be used

     Using Slab Decomposition

     bravais-lattice index     =            0
     lattice parameter (alat)  =      13.8706  a.u.
     unit-cell volume          =    5060.0776 (a.u.)^3
     number of atoms/cell      =           17
     number of atomic types    =            5
     number of electrons       =       201.00
     number of Kohn-Sham states=          121
     kinetic-energy cutoff     =     120.0000  Ry
     charge density cutoff     =     480.0000  Ry
     scf convergence threshold =      1.0E-03
     mixing beta               =       0.7000
     number of iterations used =            8  TF        mixing
     energy convergence thresh.=      0.0E+00
     force convergence thresh. =      0.0E+00
     Exchange-correlation=  SLA  PW   PBX  PBC
                           (   1   4   3   4   0   0   0)
     nstep                     =           20

     celldm(1)=  13.870590  celldm(2)=   0.000000  celldm(3)=   0.000000
     celldm(4)=   0.000000  celldm(5)=   0.000000  celldm(6)=   0.000000

     crystal axes: (cart. coord. in units of alat)
               a(1) = (   1.000000   0.000000   0.000000 )
               a(2) = (   0.000000   1.000000   0.000000 )
               a(3) = (   0.000000   0.000000   1.896149 )

     reciprocal axes: (cart. coord. in units 2 pi/alat)
               b(1) = (  1.000000  0.000000  0.000000 )
               b(2) = (  0.000000  1.000000  0.000000 )
               b(3) = (  0.000000  0.000000  0.527385 )

     PseudoPot. # 1 for Hf read from file:
     q-e/pseudo/hf_pbe_v1.uspp.F.UPF
     MD5 check sum: 8ee9378dfe14276e333edf04c5e4aa26
     Pseudo is Ultrasoft + core correction, Zval = 12.0
     Generated by new atomic code, or converted to UPF format
     Using radial grid of  921 points,  8 beta functions with:
                l(1) =   0
                l(2) =   0
                l(3) =   0
                l(4) =   1
                l(5) =   1
                l(6) =   2
                l(7) =   2
                l(8) =   3
     Q(r) pseudized with  6 coefficients,  rinner =    1.200   1.200   1.200
                                                       1.200   1.200   1.200
                                                       1.200

     PseudoPot. # 2 for Nb read from file:
     q-e/pseudo/nb_pbe_v1.uspp.F.UPF
     MD5 check sum: 573aab8a2fa660278ed4a62cd769473f
     Pseudo is Ultrasoft + core correction, Zval = 13.0
     Generated by new atomic code, or converted to UPF format
     Using radial grid of  887 points,  6 beta functions with:
                l(1) =   0
                l(2) =   0
                l(3) =   1
                l(4) =   1
                l(5) =   2
                l(6) =   2
     Q(r) pseudized with  6 coefficients,  rinner =    1.000   1.000   1.000
                                                       1.000   1.000

     PseudoPot. # 3 for Ta read from file:
     q-e/pseudo/ta_pbe_v1.uspp.F.UPF
     MD5 check sum: f8bbe9446314a3b8ea5d9f3e3836c939
     Pseudo is Ultrasoft + core correction, Zval = 13.0
     Generated by new atomic code, or converted to UPF format
     Using radial grid of  921 points,  7 beta functions with:
                l(1) =   0
                l(2) =   0
                l(3) =   1
                l(4) =   1
                l(5) =   2
                l(6) =   2
                l(7) =   3
     Q(r) pseudized with  6 coefficients,  rinner =    1.300   1.300   1.300
                                                       1.300   1.300   1.300
                                                       1.300

     PseudoPot. # 4 for Zr read from file:
     q-e/pseudo/zr_pbe_v1.uspp.F.UPF
     MD5 check sum: 5db81b1e868ab7776c4564c113de050b
     Pseudo is Ultrasoft + core correction, Zval = 12.0
     Generated by new atomic code, or converted to UPF format
     Using radial grid of  887 points,  6 beta functions with:
                l(1) =   0
                l(2) =   0
                l(3) =   1
                l(4) =   1
                l(5) =   2
                l(6) =   2
     Q(r) pseudized with  6 coefficients,  rinner =    1.200   1.200   1.200
                                                       1.200   1.200

     PseudoPot. # 5 for H  read from file:
     q-e/pseudo/h_pbe_v1.4.uspp.F.UPF
     MD5 check sum: 761ae9a214b05c3daf00ab9f6b793d6f
     Pseudo is Ultrasoft, Zval =  1.0
     Generated by new atomic code, or converted to UPF format
     Using radial grid of  615 points,  2 beta functions with:
                l(1) =   0
                l(2) =   0
     Q(r) pseudized with  8 coefficients,  rinner =    0.700

     atomic species   valence    mass     pseudopotential
        Hf            12.00   178.49000     Hf( 1.00)
        Nb            13.00    92.90637     Nb( 1.00)
        Ta            13.00   180.94788     Ta( 1.00)
        Zr            12.00    91.22400     Zr( 1.00)
        H              1.00     2.01400     H ( 1.00)

     Starting magnetic structure
     atomic species   magnetization
        Hf           0.000
        Nb           0.000
        Ta           0.000
        Zr           0.000
        H            0.000

     No symmetry found

   Cartesian axes

     site n.     atom                  positions (alat units)
         1           Hf  tau(   1) = (   0.1249797   0.1249746   0.8174773  )
         2           Nb  tau(   2) = (   0.1250259   0.3749771   1.0599394  )
         3           Ta  tau(   3) = (   0.3751799   0.1250253   1.0787069  )
         4           Zr  tau(   4) = (   0.3749599   0.3750193   0.8264272  )
         5           Hf  tau(   5) = (   0.1249742   0.6249777   0.8174756  )
         6           Nb  tau(   6) = (   0.1250266   0.8749767   1.0599171  )
         7           Ta  tau(   7) = (   0.3751804   0.6250229   1.0787032  )
         8           Zr  tau(   8) = (   0.3749645   0.8750292   0.8264090  )
         9           Hf  tau(   9) = (   0.6249795   0.1249703   0.8174402  )
        10           Nb  tau(  10) = (   0.6250164   0.3749776   1.0600053  )
        11           Ta  tau(  11) = (   0.8747978   0.1250218   1.0787100  )
        12           Zr  tau(  12) = (   0.8750615   0.3750194   0.8264039  )
        13           Hf  tau(  13) = (   0.6249842   0.6249832   0.8174387  )
        14           Nb  tau(  14) = (   0.6250158   0.8749771   1.0599880  )
        15           Ta  tau(  15) = (   0.8747961   0.6250217   1.0787071  )
        16           Zr  tau(  16) = (   0.8750574   0.8750259   0.8263861  )
        17           H   tau(  17) = (   0.6811989   0.5449591   1.2261580  )

     number of k points=     1  Gaussian smearing, width (Ry)=  0.0220
                       cart. coord. in units 2pi/alat
        k(    1) = (   0.0000000   0.0000000   0.0000000), wk =   1.0000000

     Check: negative core charge=   -0.000002
     Generating pointlists ...
     new r_m :   0.1437 (alat units)  1.9925 (a.u.) for type    1
     new r_m :   0.1008 (alat units)  1.3975 (a.u.) for type    2
     new r_m :   0.1057 (alat units)  1.4658 (a.u.) for type    3
     new r_m :   0.1411 (alat units)  1.9571 (a.u.) for type    4
     new r_m :   0.1008 (alat units)  1.3975 (a.u.) for type    5

     Initial potential from superposition of free atoms

     starting charge     192.9760, renormalised to     201.0000

     negative rho (up, down):  5.378E-01 5.378E-01
     Starting wfcs are  209 randomized atomic wfcs

     Self-consistent Calculation

     iteration #  1     ecut=   120.00 Ry     beta= 0.70
     Davidson diagonalization with overlap
     ethr =  1.00E-02,  avg # of iterations =  5.5

     negative rho (up, down):  6.991E-01 6.996E-01

     total energy              =   -2060.35084153 Ry
     estimated scf accuracy    <     202.66835648 Ry

     total magnetization       =     0.00 Bohr mag/cell
     absolute magnetization    =     0.06 Bohr mag/cell

[...]

     Magnetic moment per site  (integrated on atomic sphere of radius R)
     atom   1 (R=0.144)  charge=  9.4303  magn= -0.0002
     atom   2 (R=0.101)  charge=  7.3189  magn= -0.0000
     atom   3 (R=0.106)  charge=  7.6364  magn= -0.0002
     atom   4 (R=0.141)  charge=  9.3984  magn= -0.0001
     atom   5 (R=0.144)  charge=  9.4335  magn= -0.0000
     atom   6 (R=0.101)  charge=  7.3210  magn=  0.0000
     atom   7 (R=0.106)  charge=  7.6361  magn=  0.0001
     atom   8 (R=0.141)  charge=  9.3941  magn= -0.0001
     atom   9 (R=0.144)  charge=  9.4350  magn= -0.0000
     atom  10 (R=0.101)  charge=  7.3268  magn=  0.0000
     atom  11 (R=0.106)  charge=  7.6354  magn= -0.0000
     atom  12 (R=0.141)  charge=  9.4020  magn=  0.0000
     atom  13 (R=0.144)  charge=  9.4393  magn= -0.0000
     atom  14 (R=0.101)  charge=  7.3220  magn= -0.0000
     atom  15 (R=0.106)  charge=  7.6423  magn= -0.0001
     atom  16 (R=0.141)  charge=  9.3962  magn= -0.0001
     atom  17 (R=0.101)  charge=  1.0442  magn= -0.0000

     End of self-consistent calculation

 ------ SPIN UP ------------

          k = 0.0000 0.0000 0.0000 ( 56136 PWs)   bands (ev):

   -63.1851 -63.1259 -63.0719 -63.0409 -56.4892 -56.4848 -56.4666 -56.4523
   -49.7431 -49.7285 -49.6961 -49.6843 -43.1719 -43.1583 -43.1494 -43.1384
   -30.3208 -30.2792 -30.1118 -30.1032 -30.0388 -30.0180 -29.9373 -29.9189
   -29.8260 -29.7549 -29.7135 -29.7051 -26.8754 -26.6503 -26.5382 -26.4666
   -26.3969 -26.3841 -26.3300 -26.2979 -26.2112 -26.2028 -26.1435 -25.9550
   -25.9215 -25.6095 -25.5285 -25.5210 -25.2902 -25.2004 -25.0568 -25.0536
   -25.0402 -25.0207 -24.9545 -24.9202 -21.7003 -21.6100 -21.5355 -21.5165
   -21.3341 -21.2903 -21.2458 -21.2278 -21.1946 -21.1282 -21.0963 -21.0293
    -2.2830  -1.0130  -0.7013  -0.3662  -0.2533  -0.1358  -0.0090   0.6229
     0.9701   1.2833   1.3246   1.3558   1.4015   1.4215   1.7384   1.8352
     2.0936   2.1115   2.3050   2.3690   2.4049   2.5691   2.8398   3.0846
     3.1751   3.2792   3.4177   3.4418   3.4554   3.5457   3.6990   3.7185
     3.7891   3.9039   4.0434   4.0992   4.3223   4.5505   4.6768   4.8315
     4.9892   5.1792   5.3184   5.3845   5.4336   5.4914   5.6233   5.8463
     6.1414   6.3469   6.3475   6.4293   6.4732   6.4925   6.5705   6.6148
     6.8142

 ------ SPIN DOWN ----------

[...]

     the Fermi energy is     4.3355 ev

!    total energy              =   -2069.79233936 Ry
     estimated scf accuracy    <       0.00084341 Ry
     smearing contrib. (-TS)   =      -0.03785923 Ry
     internal energy E=F+TS    =   -2069.75448012 Ry

[...]

[...]
Zr            6.4229215841        6.4226899848        6.0656737289    0   0   0
H             4.9998622866        4.0004035813        8.8646736568

     kinetic energy (Ekin) =           0.55137389 Ry
     temperature           =       58036.70163102 K
     Ekin + Etot (const)   =       -2069.24096546 Ry

     File ./pwscf.msd.dat deleted, as requested

     Writing config-only to output data dir ./pwscf.save/
     NEW-OLD atomic charge density approx. for the potential

     Check: negative core charge=   -0.000002

     negative rho (up, down):  5.274E-01 5.274E-01
     Generating pointlists ...
     new r_m :   0.0958 (alat units)  1.3282 (a.u.) for type    2
     new r_m :   0.1015 (alat units)  1.4077 (a.u.) for type    3
     new r_m :   0.0958 (alat units)  1.3282 (a.u.) for type    5

[...]

     iteration #  1     ecut=   120.00 Ry     beta= 0.70
     Davidson diagonalization with overlap
     c_bands:  1 eigenvalues not converged
     c_bands:  1 eigenvalues not converged
     ethr =  1.00E-06,  avg # of iterations = 20.0

[...]

     Writing config-only to output data dir ./pwscf.save/
     NEW-OLD atomic charge density approx. for the potential

     Check: negative core charge=   -0.000002

     negative rho (up, down):  5.259E-01 5.259E-01
     Generating pointlists ...
     new r_m :   0.0679 (alat units)  0.9411 (a.u.) for type    1
     new r_m :   0.0679 (alat units)  0.9411 (a.u.) for type    5

     Self-consistent Calculation

[...]

     total energy              =   -2069.35453937 Ry
     estimated scf accuracy    <       0.00157422 Ry

[...]

     iteration #  5     ecut=   120.00 Ry     beta= 0.70
     Davidson diagonalization with overlap
     ethr =  7.83E-07,  avg # of iterations =  2.0

[...]

     Magnetic moment per site  (integrated on atomic sphere of radius R)
     atom   1 (R=0.068)  charge=  2.5238  magn=  0.0000
     atom   2 (R=0.080)  charge=  4.7821  magn=  0.0000
     atom   3 (R=0.086)  charge=  5.4254  magn= -0.0000
     atom   4 (R=0.141)  charge=  9.3948  magn=  0.0000
     atom   5 (R=0.068)  charge=  2.5250  magn= -0.0000
     atom   6 (R=0.080)  charge=  4.7825  magn= -0.0000
     atom   7 (R=0.086)  charge=  5.4275  magn= -0.0000
     atom   8 (R=0.141)  charge=  9.3946  magn=  0.0000
     atom   9 (R=0.068)  charge=  2.5253  magn= -0.0000
     atom  10 (R=0.080)  charge=  4.7842  magn=  0.0000
     atom  11 (R=0.086)  charge=  5.4253  magn= -0.0000
     atom  12 (R=0.141)  charge=  9.3948  magn=  0.0000
     atom  13 (R=0.068)  charge=  2.5421  magn= -0.0000
     atom  14 (R=0.080)  charge=  4.7857  magn= -0.0000
     atom  15 (R=0.086)  charge=  5.4290  magn= -0.0000
     atom  16 (R=0.141)  charge=  9.3963  magn=  0.0000
     atom  17 (R=0.068)  charge=  0.8681  magn= -0.0000

     End of self-consistent calculation

 ------ SPIN UP ------------

[...]

 ------ SPIN DOWN ----------

          k = 0.0000 0.0000 0.0000 ( 56136 PWs)   bands (ev):

   -63.1501 -63.1329 -63.0858 -63.0813 -56.3284 -56.3136 -56.2774 -56.2216
   -49.7728 -49.7289 -49.6897 -49.6793 -43.1434 -43.1274 -43.1138 -43.1029
   -30.3824 -30.2715 -30.1487 -30.1201 -30.0339 -29.9947 -29.9648 -29.9562
   -29.7952 -29.7711 -29.7012 -29.6920 -26.9874 -26.7842 -26.5134 -26.4193
   -26.3863 -26.3761 -26.3409 -26.2883 -26.2170 -26.1450 -26.1121 -25.9489
   -25.7742 -25.5293 -25.4814 -25.3934 -25.2153 -25.1855 -25.0506 -24.9605
   -24.8793 -24.8406 -24.8004 -24.7790 -21.6671 -21.5768 -21.4935 -21.4746
   -21.3051 -21.2635 -21.2136 -21.2045 -21.1486 -21.0747 -21.0468 -20.9715
    -3.5304  -1.1122  -0.6922  -0.2013  -0.1640  -0.1199   0.0542   0.5435
     0.9188   1.3300   1.3429   1.3996   1.4161   1.4550   1.7693   2.0455
     2.1630   2.3032   2.3560   2.4142   2.4432   2.7836   2.9101   3.2015
     3.3499   3.3851   3.4253   3.4764   3.4812   3.5518   3.7299   3.7695
     3.9146   3.9951   4.0231   4.1324   4.4078   4.6391   4.6932   4.7164
     4.9572   5.1512   5.4076   5.4385   5.4880   5.5171   5.7140   5.7881
     6.1773   6.3725   6.3850   6.4827   6.4907   6.5294   6.6021   6.6261
     6.9333

     the Fermi energy is     4.3853 ev

!    total energy              =   -2069.35435094 Ry
     estimated scf accuracy    <       0.00045466 Ry
     smearing contrib. (-TS)   =      -0.03924920 Ry
     internal energy E=F+TS    =   -2069.31510174 Ry

     total magnetization       =     0.00 Bohr mag/cell
     absolute magnetization    =     0.00 Bohr mag/cell

     convergence has been achieved in   5 iterations

     negative rho (up, down):  5.258E-01 5.258E-01

     Forces acting on atoms (cartesian axes, Ry/au):

     atom    1 type  1   force =     0.00212841    0.00433246   -0.33494210
     atom    2 type  2   force =    -0.00120177   -0.00150939    0.43539405
     atom    3 type  3   force =    -0.00796334    0.00194686    0.30924304
     atom    4 type  4   force =     0.01377138    0.00849965   -0.39306119
     atom    5 type  1   force =     0.00061754    0.00101011   -0.33602821
     atom    6 type  2   force =    -0.00014831   -0.00772921    0.43403829
     atom    7 type  3   force =    -0.03949333   -0.00201372    0.30554172
     atom    8 type  4   force =     0.01004324   -0.00649029   -0.39345973
     atom    9 type  1   force =    -0.00082871   -0.00033368   -0.33138180
     atom   10 type  2   force =    -0.00027617   -0.04571351    0.42405845
     atom   11 type  3   force =    -0.00259710    0.00109079    0.30717663
     atom   12 type  4   force =    -0.01042688    0.00136110   -0.39429877
     atom   13 type  1   force =    -0.10115687   -0.06604440   -1.22074239
     atom   14 type  2   force =    -0.00094250    0.05661892    0.43205556
     atom   15 type  3   force =     0.05293622   -0.00378459    0.31862986
     atom   16 type  4   force =    -0.00431929    0.00282487   -0.39639333
     atom   17 type  5   force =     0.08985746    0.05593404    0.83416991
     The non-local contrib.  to forces
     atom    1 type  1   force =     0.00243386    0.00764046   -0.24388982
     atom    2 type  2   force =    -0.00077966   -0.02325179   -0.23867533
     atom    3 type  3   force =    -0.04210267    0.00265442    0.26719877
     atom    4 type  4   force =    -0.00327900   -0.00374209    0.05551261
     atom    5 type  1   force =     0.00480538   -0.00278411   -0.28099710
     atom    6 type  2   force =    -0.00199625   -0.01390925   -0.23847830
     atom    7 type  3   force =     0.04385778    0.00095647    0.25385923
     atom    8 type  4   force =    -0.00181679    0.00244534    0.05385563
     atom    9 type  1   force =    -0.00678505   -0.00016483   -0.28240341
     atom   10 type  2   force =    -0.00959704   -0.02353348   -0.23654923
     atom   11 type  3   force =     0.01049841    0.00040683    0.27040834
     atom   12 type  4   force =     0.00349816   -0.00222042    0.05178317
     atom   13 type  1   force =     0.04400260    0.02380074    0.10392949
     atom   14 type  2   force =    -0.00839624    0.03799819   -0.23341219
     atom   15 type  3   force =    -0.04237863    0.00415805    0.24084368
     atom   16 type  4   force =     0.00455609    0.00303136    0.05018058
     atom   17 type  5   force =     0.00419554    0.00451599   -0.08450299
     The ionic contribution  to forces
     atom    1 type  1   force =     0.01887664    0.01559391  -58.28320748
     atom    2 type  2   force =     0.03814079   -0.18654956   53.81020376
     atom    3 type  3   force =    -0.22859043    0.02008969   60.18123226
     atom    4 type  4   force =    -0.38013461   -0.37209640  -55.92243247
     atom    5 type  1   force =     0.06579350   -0.01112077  -58.39396373
     atom    6 type  2   force =     0.04297131    0.19741392   53.80899997
     atom    7 type  3   force =    -1.39465003   -0.06703085   60.62451143
     atom    8 type  4   force =    -0.43508827    0.38818038  -55.95941385
     atom    9 type  1   force =    -0.01847532    0.04482721  -58.43681929
     atom   10 type  2   force =    -0.12113922   -1.52255830   54.22782380
     atom   11 type  3   force =     0.23927299    0.02495101   60.19089356
     atom   12 type  4   force =     0.41645648   -0.46477470  -55.98281046
     atom   13 type  1   force =    -0.54382239   -0.33285601  -62.75460388
     atom   14 type  2   force =    -0.15938157    1.85901193   54.37862607
     atom   15 type  3   force =     1.87592480   -0.10134980   60.90702994
     atom   16 type  4   force =     0.48383259    0.49354347  -56.03306630
     atom   17 type  5   force =     0.10001275    0.01472486    3.63699667
     The local contribution  to forces
     atom    1 type  1   force =    -0.01962695   -0.01886512   58.19207730
     atom    2 type  2   force =    -0.03552021    0.20340120  -53.19091755
     atom    3 type  3   force =     0.25989949   -0.02140814  -60.20945448
     atom    4 type  4   force =     0.39450139    0.38349045   55.45744956
     atom    5 type  1   force =    -0.06733464    0.01482901   58.33551207
     atom    6 type  2   force =    -0.03818818   -0.18858810  -53.19011987
     atom    7 type  3   force =     1.30159770    0.06353218  -60.64137711
     atom    8 type  4   force =     0.44427050   -0.39639178   55.49572888
     atom    9 type  1   force =     0.02481525   -0.04519881   58.38597332
     atom   10 type  2   force =     0.12727392    1.49527239  -53.62256904
     atom   11 type  3   force =    -0.25116462   -0.02482433  -60.22448521
     atom   12 type  4   force =    -0.42774779    0.46544297   55.51819914
     atom   13 type  1   force =     0.39143216    0.23716513   61.37274905
     atom   14 type  2   force =     0.16360645   -1.83028300  -53.76614211
     atom   15 type  3   force =    -1.77338326    0.09288885  -60.89661845
     atom   16 type  4   force =    -0.48998252   -0.49082072   55.56818876
     atom   17 type  5   force =    -0.01463972    0.03603870   -2.72538808
     The core correction contribution to forces
     atom    1 type  1   force =     0.00084636    0.00048602   -0.02169288
     atom    2 type  2   force =     0.00004529    0.00024369    0.02216099
     atom    3 type  3   force =    -0.00134431    0.00010029    0.03854982
     atom    4 type  4   force =     0.00031571    0.00032303   -0.01219685
     atom    5 type  1   force =    -0.00028885   -0.00028319   -0.02110788
     atom    6 type  2   force =     0.00007711    0.00094332    0.02224043
     atom    7 type  3   force =     0.00352319    0.00031273    0.03561238
     atom    8 type  4   force =     0.00023403   -0.00022934   -0.01207087
     atom    9 type  1   force =    -0.00071105    0.00035514   -0.02250485
     atom   10 type  2   force =     0.00053007    0.00172797    0.02220160
     atom   11 type  3   force =     0.00295514   -0.00004517    0.03878351
     atom   12 type  4   force =    -0.00029270    0.00019052   -0.01194479
     atom   13 type  1   force =     0.00571779    0.00357935    0.02967809
     atom   14 type  2   force =     0.00053014   -0.00194452    0.02200350
     atom   15 type  3   force =    -0.00265705    0.00018417    0.03477076
     atom   16 type  4   force =    -0.00038871   -0.00024900   -0.01182785
     atom   17 type  5   force =     0.00000000    0.00000000    0.00000000
     The Hubbard contrib.    to forces
     atom    1 type  1   force =     0.00000000    0.00000000    0.00000000
     atom    2 type  2   force =     0.00000000    0.00000000    0.00000000
     atom    3 type  3   force =     0.00000000    0.00000000    0.00000000
     atom    4 type  4   force =     0.00000000    0.00000000    0.00000000
     atom    5 type  1   force =     0.00000000    0.00000000    0.00000000
     atom    6 type  2   force =     0.00000000    0.00000000    0.00000000
     atom    7 type  3   force =     0.00000000    0.00000000    0.00000000
     atom    8 type  4   force =     0.00000000    0.00000000    0.00000000
     atom    9 type  1   force =     0.00000000    0.00000000    0.00000000
     atom   10 type  2   force =     0.00000000    0.00000000    0.00000000
     atom   11 type  3   force =     0.00000000    0.00000000    0.00000000
     atom   12 type  4   force =     0.00000000    0.00000000    0.00000000
     atom   13 type  1   force =     0.00000000    0.00000000    0.00000000
     atom   14 type  2   force =     0.00000000    0.00000000    0.00000000
     atom   15 type  3   force =     0.00000000    0.00000000    0.00000000
     atom   16 type  4   force =     0.00000000    0.00000000    0.00000000
     atom   17 type  5   force =     0.00000000    0.00000000    0.00000000
     The SCF correction term to forces
     atom    1 type  1   force =    -0.00000000   -0.00000000    0.00000000
     atom    2 type  2   force =    -0.00000000    0.00000000    0.00000000
     atom    3 type  3   force =     0.00000000    0.00000000    0.00000000
     atom    4 type  4   force =     0.00000000    0.00000000    0.00000000
     atom    5 type  1   force =    -0.00000000    0.00000000    0.00000000
     atom    6 type  2   force =    -0.00000000   -0.00000000    0.00000000
     atom    7 type  3   force =     0.00000000    0.00000000    0.00000000
     atom    8 type  4   force =     0.00000000   -0.00000000    0.00000000
     atom    9 type  1   force =     0.00000000   -0.00000000    0.00000000
     atom   10 type  2   force =     0.00000000    0.00000000    0.00000000
     atom   11 type  3   force =    -0.00000000    0.00000000    0.00000000
     atom   12 type  4   force =    -0.00000000    0.00000000    0.00000000
     atom   13 type  1   force =     0.00000000    0.00000000    0.00000000
     atom   14 type  2   force =     0.00000000   -0.00000000    0.00000000
     atom   15 type  3   force =    -0.00000000    0.00000000    0.00000000
     atom   16 type  4   force =    -0.00000000   -0.00000000    0.00000000
     atom   17 type  5   force =     0.00029909    0.00059198    0.00284897

     Total force =     0.840858     Total SCF correction =     0.002925

     Entering Dynamics:    iteration =    20
                           time      =   0.0102 pico-seconds

ATOMIC_POSITIONS (angstrom)
Hf            0.9173507110        0.9173135972        6.0002837354    0   0   0
Nb            0.9176900085        2.7523320100        7.7799550803    0   0   0
Ta            2.7538208285        0.9176860149        7.9177084703    0   0   0
Zr            2.7522059512        2.7526418480        6.0659757673    0   0   0
Hf            0.9173105916        4.5873364617        6.0002711019    0   0   0
Nb            0.9176950052        6.4223291151        7.7797918918    0   0   0
Ta            2.7538243094        4.5876680102        7.9176812404    0   0   0
Zr            2.7522395759        6.4227147098        6.0658425039    0   0   0
Hf            4.5873495791        0.9172816749        6.0000109568    0   0   0
Nb            4.5876207816        2.7523359852        7.7804388155    0   0   0
Ta            6.4210161579        0.9176597836        7.9177312144    0   0   0
Zr            6.4229515852        2.7526427058        6.0658048318    0   0   0
Hf            4.5873841500        4.5873764414        6.0000000000    0   0   0
Nb            4.5876157176        6.4223321265        7.7803118750    0   0   0
Ta            6.4210034632        4.5876595310        7.9177105287    0   0   0
Zr            6.4229215841        6.4226899848        6.0656737289    0   0   0
H             4.7130222286        4.7356520332        7.2031901660

     kinetic energy (Ekin) =           0.11593239 Ry
     temperature           =       12202.85097095 K
     Ekin + Etot (const)   =       -2069.23841856 Ry

     The maximum number of steps has been reached.

     End of molecular dynamics calculation

     diffusion coefficients :
     atom     1   D =       0.00000000 cm^2/s
     atom     2   D =       0.00000000 cm^2/s
     atom     3   D =       0.00000000 cm^2/s
     atom     4   D =       0.00000000 cm^2/s
     atom     5   D =       0.00000000 cm^2/s
     atom     6   D =       0.00000000 cm^2/s
     atom     7   D =       0.00000000 cm^2/s
     atom     8   D =       0.00000000 cm^2/s
     atom     9   D =       0.00000000 cm^2/s
     atom    10   D =       0.00000000 cm^2/s
     atom    11   D =       0.00000000 cm^2/s
     atom    12   D =       0.00000000 cm^2/s
     atom    13   D =       0.00000000 cm^2/s
     atom    14   D =       0.00000000 cm^2/s
     atom    15   D =       0.00000000 cm^2/s
     atom    16   D =       0.00000000 cm^2/s
     atom    17   D =       0.00631943 cm^2/s

     < D > =       0.00631943 cm^2/s

     Writing all to output data dir ./pwscf.save/

     General routines

     Parallel routines

   This run was terminated on:  18:46:41  30May2023

   JOB DONE.