     Program PWSCF v.7.2 starts on 29May2023 at 22:55:24

     Reading input from HfNbTaZr_random_lattice_32_relax.in
Warning: card &CELL ignored
Warning: card / ignored

     Current dimensions of program PWSCF are:
     Max number of different atomic species (ntypx) = 10
     Max number of k-points (npk) =  40000
     Max angular momentum in pseudopotentials (lmaxx) =  4
     Found identity + (  0.0000  0.3333  0.0000) symmetry
     This is a supercell, fractional translations are disabled

     R & G space division:  proc/nbgrp/npool/nimage =      12
     Subspace diagonalization in iterative solution of the eigenvalue problem:
     one sub-group per band group will be used

     Using Slab Decomposition

     bravais-lattice index     =            0
     lattice parameter (alat)  =      20.8059  a.u.
     unit-cell volume          =    3002.1840 (a.u.)^3
     number of atoms/cell      =           36
     number of atomic types    =            4
     number of electrons       =       450.00
     number of Kohn-Sham states=          270
     kinetic-energy cutoff     =     120.0000  Ry
     charge density cutoff     =     960.0000  Ry
     scf convergence threshold =      1.0E-06
     mixing beta               =       0.7000
     number of iterations used =            8  plain     mixing
     energy convergence thresh.=      1.0E-04
     force convergence thresh. =      1.0E-03
     Exchange-correlation= SLA  PW   PBE  PBE
                           (   1   4   3   4   0   0   0)
     nstep                     =           50

     celldm(1)=  20.805885  celldm(2)=   0.000000  celldm(3)=   0.000000
     celldm(4)=   0.000000  celldm(5)=   0.000000  celldm(6)=   0.000000

     crystal axes: (cart. coord. in units of alat)
               a(1) = (   1.000000   0.000000   0.000000 )
               a(2) = (   0.000000   1.000000   0.000000 )
               a(3) = (   0.000000   0.000000   0.333333 )

     reciprocal axes: (cart. coord. in units 2 pi/alat)
               b(1) = (  1.000000  0.000000  0.000000 )
               b(2) = (  0.000000  1.000000  0.000000 )
               b(3) = (  0.000000  0.000000  3.000000 )

     PseudoPot. # 1 for Hf read from file:
     q-e/pseudo/hf_pbe_v1.uspp.F.UPF
     MD5 check sum: 8ee9378dfe14276e333edf04c5e4aa26
     Pseudo is Ultrasoft + core correction, Zval = 12.0
     Generated by new atomic code, or converted to UPF format
     Using radial grid of  921 points,  8 beta functions with:
                l(1) =   0
                l(2) =   0
                l(3) =   0
                l(4) =   1
                l(5) =   1
                l(6) =   2
                l(7) =   2
                l(8) =   3
     Q(r) pseudized with  6 coefficients,  rinner =    1.200   1.200   1.200
                                                       1.200   1.200   1.200
                                                       1.200

     PseudoPot. # 2 for Nb read from file:
     q-e/pseudo/nb_pbe_v1.uspp.F.UPF
     MD5 check sum: 573aab8a2fa660278ed4a62cd769473f
     Pseudo is Ultrasoft + core correction, Zval = 13.0
     Generated by new atomic code, or converted to UPF format
     Using radial grid of  887 points,  6 beta functions with:
                l(1) =   0
                l(2) =   0
                l(3) =   1
                l(4) =   1
                l(5) =   2
                l(6) =   2
     Q(r) pseudized with  6 coefficients,  rinner =    1.000   1.000   1.000
                                                       1.000   1.000

     PseudoPot. # 3 for Ta read from file:
     q-e/pseudo/ta_pbe_v1.uspp.F.UPF
     MD5 check sum: f8bbe9446314a3b8ea5d9f3e3836c939
     Pseudo is Ultrasoft + core correction, Zval = 13.0
     Generated by new atomic code, or converted to UPF format
     Using radial grid of  921 points,  7 beta functions with:
                l(1) =   0
                l(2) =   0
                l(3) =   1
                l(4) =   1
                l(5) =   2
                l(6) =   2
                l(7) =   3
     Q(r) pseudized with  6 coefficients,  rinner =    1.300   1.300   1.300
                                                       1.300   1.300   1.300
                                                       1.300

     PseudoPot. # 4 for Zr read from file:
     q-e/pseudo/zr_pbe_v1.uspp.F.UPF
     MD5 check sum: 5db81b1e868ab7776c4564c113de050b
     Pseudo is Ultrasoft + core correction, Zval = 12.0
     Generated by new atomic code, or converted to UPF format
     Using radial grid of  887 points,  6 beta functions with:
                l(1) =   0
                l(2) =   0
                l(3) =   1
                l(4) =   1
                l(5) =   2
                l(6) =   2
     Q(r) pseudized with  6 coefficients,  rinner =    1.200   1.200   1.200
                                                       1.200   1.200

     atomic species   valence    mass     pseudopotential
        Hf            12.00   178.49000     Hf( 1.00)
        Nb            13.00    92.90637     Nb( 1.00)
        Ta            13.00   180.94788     Ta( 1.00)
        Zr            12.00    91.22400     Zr( 1.00)

     No symmetry found

   Cartesian axes

     site n.     atom                  positions (alat units)
         1           Hf  tau(   1) = (   0.0908265   0.0908265   0.0908265  )
         2           Nb  tau(   2) = (   0.0908265   0.2425068   0.2425068  )
         3           Ta  tau(   3) = (   0.2425068   0.0908265   0.2425068  )
         4           Zr  tau(   4) = (   0.2425068   0.2425068   0.0908265  )
         5           Hf  tau(   5) = (   0.0908265   0.4241599   0.0908265  )
         6           Nb  tau(   6) = (   0.0908265   0.5758401   0.2425068  )
         7           Ta  tau(   7) = (   0.2425068   0.4241599   0.2425068  )
         8           Zr  tau(   8) = (   0.2425068   0.5758401   0.0908265  )
         9           Hf  tau(   9) = (   0.0908265   0.7574932   0.0908265  )
        10           Nb  tau(  10) = (   0.0908265   0.9091735   0.2425068  )
        11           Ta  tau(  11) = (   0.2425068   0.7574932   0.2425068  )
        12           Zr  tau(  12) = (   0.2425068   0.9091735   0.0908265  )
        13           Hf  tau(  13) = (   0.4241599   0.0908265   0.0908265  )
        14           Nb  tau(  14) = (   0.4241599   0.2425068   0.2425068  )
        15           Ta  tau(  15) = (   0.5758401   0.0908265   0.2425068  )
        16           Zr  tau(  16) = (   0.5758401   0.2425068   0.0908265  )
        17           Hf  tau(  17) = (   0.4241599   0.4241599   0.0908265  )
        18           Nb  tau(  18) = (   0.4241599   0.5758401   0.2425068  )
        19           Ta  tau(  19) = (   0.5758401   0.4241599   0.2425068  )
        20           Zr  tau(  20) = (   0.5758401   0.5758401   0.0908265  )
        21           Hf  tau(  21) = (   0.4241599   0.7574932   0.0908265  )
        22           Nb  tau(  22) = (   0.4241599   0.9091735   0.2425068  )
        23           Ta  tau(  23) = (   0.5758401   0.7574932   0.2425068  )
        24           Zr  tau(  24) = (   0.5758401   0.9091735   0.0908265  )
        25           Hf  tau(  25) = (   0.7574932   0.0908265   0.0908265  )
        26           Nb  tau(  26) = (   0.7574932   0.2425068   0.2425068  )
        27           Ta  tau(  27) = (   0.9091735   0.0908265   0.2425068  )
        28           Zr  tau(  28) = (   0.9091735   0.2425068   0.0908265  )
        29           Hf  tau(  29) = (   0.7574932   0.4241599   0.0908265  )
        30           Nb  tau(  30) = (   0.7574932   0.5758401   0.2425068  )
        31           Ta  tau(  31) = (   0.9091735   0.4241599   0.2425068  )
        32           Zr  tau(  32) = (   0.9091735   0.5758401   0.0908265  )
        33           Hf  tau(  33) = (   0.7574932   0.7574932   0.0908265  )
        34           Nb  tau(  34) = (   0.7574932   0.9091735   0.2425068  )
        35           Ta  tau(  35) = (   0.9091735   0.7574932   0.2425068  )
        36           Zr  tau(  36) = (   0.9091735   0.9091735   0.0908265  )

     number of k points=     1  Gaussian smearing, width (Ry)=  0.0220
                       cart. coord. in units 2pi/alat
        k(    1) = (   0.0000000   0.0000000   0.0000000), wk =   2.0000000

     Initial potential from superposition of free atoms

     starting charge     431.9460, renormalised to     450.0000

     negative rho (up, down):  2.386E+00 0.000E+00
     Starting wfcs are  468 randomized atomic wfcs

     Self-consistent Calculation

     iteration #  1     ecut=   120.00 Ry     beta= 0.70
     Davidson diagonalization with overlap
     ethr =  1.00E-02,  avg # of iterations =  2.0

     negative rho (up, down):  2.295E+00 0.000E+00

     total energy              =   -4653.44521272 Ry
     estimated scf accuracy    <       8.17429488 Ry

[...]

     iteration #  7     ecut=   120.00 Ry     beta= 0.70
     Davidson diagonalization with overlap
     c_bands:  1 eigenvalues not converged
     ethr =  3.42E-05,  avg # of iterations = 20.0

[...]

     End of self-consistent calculation

          k = 0.0000 0.0000 0.0000 ( 66693 PWs)   bands (ev):

   -39.2220 -39.2174 -39.2174 -39.2143 -39.2142 -39.2105 -39.2104 -39.2104
   -39.2104 -32.9323 -32.9322 -32.9277 -32.9206 -32.9206 -32.9206 -32.9205
   -32.9153 -32.9153 -26.4619 -26.4618 -26.4457 -26.4457 -26.4454 -26.4454
   -26.4347 -26.4284 -26.4283 -19.9393 -19.9393 -19.9385 -19.9385 -19.9257
   -19.9256 -19.9035 -19.9035 -19.8753  -6.9190  -6.8352  -6.8352  -6.7719
    -6.7719  -6.7199  -6.7199  -6.7191  -6.7190  -6.5541  -6.5141  -6.5059
    -6.5058  -6.4095  -6.4095  -6.3991  -6.3991  -6.3757  -6.3757  -6.3405
    -6.3405  -6.3303  -6.3302  -6.3255  -6.3254  -6.3195  -6.3194  -3.7504
    -3.7503  -3.6655  -3.6654  -3.6467  -3.6466  -3.5977  -3.5494  -3.5494
    -3.3899  -3.3898  -3.2524  -3.1656  -3.1656  -3.1347  -3.1346  -3.1313
    -3.1313  -2.9883  -2.9882  -2.9680  -2.9680  -2.8723  -2.7103  -2.7102
    -2.6560  -2.6560  -2.4687  -2.4687  -2.3980  -2.3979  -2.2316  -2.2316
    -2.2046  -2.2046  -2.1336  -1.9841  -1.9841  -1.9746  -1.9745  -1.8223
    -1.8223  -1.5238  -1.5088  -1.5088  -1.4364  -1.4364  -1.4299  -1.4298
    -1.3359  -1.3359  -1.1051  -1.1051  -1.0660   1.6255   1.6255   1.7075
     1.7076   1.7963   1.7963   1.8167   1.8167   1.8723   1.8723   1.8823
     1.8823   1.9180   1.9180   2.0268   2.0268   2.0330   2.0330   2.1187
     2.1187   2.1303   2.1682   2.1682   2.1823   2.1999   2.1999   2.2956
    20.2991  20.9501  21.2123  21.5224  21.7721  21.7721  21.8723  21.9607
    21.9607  22.1189  22.2320  22.3676  22.3676  22.6321  22.6321  22.6378
    22.6378  22.6510  22.6510  22.8418  22.8418  22.8473  22.8474  22.9298
    22.9298  22.9809  22.9809  23.2715  23.2715  23.4160  23.4160  23.7332
    23.7332  23.7453  23.7454  24.0400  24.0400  24.0421  24.0422  24.2462
    24.2462  24.2856  24.2856  24.4193  24.4193  24.4225  24.4225  24.7591
    24.7591  24.7806  24.7806  25.1494  25.1494  25.1803  25.1803  25.6232
    25.6233  25.7464  25.7464  26.2568  26.2568  26.3787  26.3787  26.3819
    26.3819  26.4352  26.4352  26.7225  26.7225  26.8365  26.8365  26.9148
[...]
     atom   10 type  2   force =     0.00446725   -0.00373202   -0.00085329
     atom   11 type  3   force =    -0.00067463    0.00471642   -0.00079659
     atom   12 type  4   force =     0.00695138   -0.00002333   -0.00133031
     atom   13 type  1   force =     0.00013688   -0.00722569    0.00292281
     atom   14 type  2   force =     0.00575275   -0.00368808   -0.00082590
     atom   15 type  3   force =    -0.00723697    0.00004227   -0.00065639
     atom   16 type  4   force =     0.00318675    0.00114246   -0.00140788
     atom   17 type  1   force =     0.00221991   -0.00222220    0.00298859
     atom   18 type  2   force =     0.00550839    0.00418378   -0.00093962
     atom   19 type  3   force =    -0.00531483    0.00006056   -0.00075081
     atom   20 type  4   force =     0.00053316    0.00723247   -0.00131867
     atom   21 type  1   force =     0.00037072    0.00112193    0.00298921
     atom   22 type  2   force =     0.00452167   -0.00385563   -0.00085072
     atom   23 type  3   force =    -0.00823674    0.00408939   -0.00077980
     atom   24 type  4   force =    -0.00145381   -0.00089353   -0.00139777
     atom   25 type  1   force =    -0.00461488   -0.00215363    0.00285338
     atom   26 type  2   force =     0.00166968   -0.00162414   -0.00078675
     atom   27 type  3   force =    -0.00444300    0.00154328   -0.00062417
     atom   28 type  4   force =     0.00166510    0.00165540   -0.00142584
     atom   29 type  1   force =    -0.00452293   -0.00579120    0.00291949
     atom   30 type  2   force =     0.00073095    0.00223437   -0.00086272
     atom   31 type  3   force =    -0.00576444   -0.00140858   -0.00068997
     atom   32 type  4   force =     0.00251024    0.00612904   -0.00135122
     atom   33 type  1   force =    -0.00561975   -0.00029333    0.00297182
     atom   34 type  2   force =     0.00060499   -0.00403580   -0.00081507
     atom   35 type  3   force =    -0.00415539    0.00391068   -0.00071418
     atom   36 type  4   force =     0.00362209   -0.00014965   -0.00139608
     The local contribution  to forces
     atom    1 type  1   force =     0.00062133    0.00398533   -0.00257046
     atom    2 type  2   force =    -0.00211937    0.00334480    0.00080127
     atom    3 type  3   force =     0.00113545    0.00174518    0.00066013
     atom    4 type  4   force =    -0.00405518    0.00129823    0.00125249
     atom    5 type  1   force =     0.00265470    0.00398513   -0.00265676
     atom    6 type  2   force =    -0.00337583   -0.00358745    0.00087063
     atom    7 type  3   force =     0.00147733   -0.00076805    0.00072140
     atom    8 type  4   force =    -0.00587483   -0.00835562    0.00114816
     atom    9 type  1   force =    -0.00020811   -0.00113478   -0.00264652
     atom   10 type  2   force =    -0.00439351    0.00350327    0.00082206
     atom   11 type  3   force =     0.00029588   -0.00462120    0.00074490
     atom   12 type  4   force =    -0.00644429    0.00018464    0.00122985
     atom   13 type  1   force =    -0.00059095    0.00650510   -0.00263465
     atom   14 type  2   force =    -0.00558191    0.00359704    0.00079892
     atom   15 type  3   force =     0.00665866    0.00012530    0.00061905
     atom   16 type  4   force =    -0.00279434   -0.00089106    0.00130087
     atom   17 type  1   force =    -0.00261133    0.00179492   -0.00269553
     atom   18 type  2   force =    -0.00547402   -0.00416345    0.00090371
     atom   19 type  3   force =     0.00496202   -0.00002129    0.00070404
     atom   20 type  4   force =    -0.00021369   -0.00684957    0.00121654
     atom   21 type  1   force =    -0.00088773   -0.00146087   -0.00269591
     atom   22 type  2   force =    -0.00439216    0.00381384    0.00082140
     atom   23 type  3   force =     0.00773233   -0.00384867    0.00073012
     atom   24 type  4   force =     0.00157044    0.00098249    0.00129084
     atom   25 type  1   force =     0.00389367    0.00180067   -0.00257094
     atom   26 type  2   force =    -0.00160702    0.00176484    0.00076227
     atom   27 type  3   force =     0.00411443   -0.00129601    0.00059083
     atom   28 type  4   force =    -0.00128985   -0.00119527    0.00131736
     atom   29 type  1   force =     0.00394527    0.00512764   -0.00263208
     atom   30 type  2   force =    -0.00049297   -0.00220432    0.00083336
     atom   31 type  3   force =     0.00547298    0.00154740    0.00065078
     atom   32 type  4   force =    -0.00202373   -0.00578153    0.00124729
     atom   33 type  1   force =     0.00502794   -0.00016827   -0.00267982
     atom   34 type  2   force =    -0.00053459    0.00374649    0.00078799
     atom   35 type  3   force =     0.00384710   -0.00386374    0.00067211
     atom   36 type  4   force =    -0.00323107    0.00008300    0.00129024
     The core correction contribution to forces
     atom    1 type  1   force =     0.00004857    0.00002526   -0.00002381
     atom    2 type  2   force =    -0.00000201    0.00000118   -0.00000023
     atom    3 type  3   force =     0.00000436   -0.00000948    0.00000181
     atom    4 type  4   force =     0.00000120   -0.00000126    0.00000182
     atom    5 type  1   force =     0.00005380    0.00003164   -0.00002405
     atom    6 type  2   force =    -0.00000263    0.00000116   -0.00000027
     atom    7 type  3   force =     0.00000347   -0.00000714    0.00000184
     atom    8 type  4   force =     0.00000123    0.00000233    0.00000189
     atom    9 type  1   force =     0.00004901    0.00002712   -0.00002406
     atom   10 type  2   force =    -0.00000294   -0.00000076   -0.00000027
     atom   11 type  3   force =     0.00000510   -0.00001124    0.00000179
     atom   12 type  4   force =     0.00000250   -0.00000026    0.00000184
     atom   13 type  1   force =     0.00005066    0.00002848   -0.00002386
     atom   14 type  2   force =    -0.00000201    0.00000101   -0.00000018
     atom   15 type  3   force =     0.00000414   -0.00000765    0.00000183
     atom   16 type  4   force =    -0.00000011   -0.00000061    0.00000176
     atom   17 type  1   force =     0.00004721    0.00003020   -0.00002411
     atom   18 type  2   force =    -0.00000182   -0.00000015   -0.00000030
     atom   19 type  3   force =     0.00000491   -0.00001119    0.00000179
     atom   20 type  4   force =     0.00000034    0.00000338    0.00000176
     atom   21 type  1   force =     0.00004852    0.00002520   -0.00002419
     atom   22 type  2   force =    -0.00000156    0.00000075   -0.00000022
     atom   23 type  3   force =     0.00000557   -0.00000881    0.00000176
     atom   24 type  4   force =    -0.00000092   -0.00000218    0.00000174
     atom   25 type  1   force =     0.00005026    0.00002396   -0.00002370
     atom   26 type  2   force =    -0.00000199    0.00000120   -0.00000015
     atom   27 type  3   force =     0.00000633   -0.00000998    0.00000186
     atom   28 type  4   force =     0.00000127    0.00000035    0.00000177
     atom   29 type  1   force =     0.00004879    0.00003001   -0.00002396
     atom   30 type  2   force =    -0.00000153    0.00000175   -0.00000020
     atom   31 type  3   force =     0.00000670   -0.00001066    0.00000182
     atom   32 type  4   force =     0.00000074    0.00000352    0.00000180
     atom   33 type  1   force =     0.00005211    0.00002996   -0.00002410
     atom   34 type  2   force =    -0.00000154   -0.00000148   -0.00000019
     atom   35 type  3   force =     0.00000435   -0.00000736    0.00000180
     atom   36 type  4   force =     0.00000074   -0.00000296    0.00000179
     The Hubbard contrib.    to forces
     atom    1 type  1   force =     0.00000000    0.00000000    0.00000000
     atom    2 type  2   force =     0.00000000    0.00000000    0.00000000
     atom    3 type  3   force =     0.00000000    0.00000000    0.00000000
     atom    4 type  4   force =     0.00000000    0.00000000    0.00000000
     atom    5 type  1   force =     0.00000000    0.00000000    0.00000000
     atom    6 type  2   force =     0.00000000    0.00000000    0.00000000
     atom    7 type  3   force =     0.00000000    0.00000000    0.00000000
     atom    8 type  4   force =     0.00000000    0.00000000    0.00000000
     atom    9 type  1   force =     0.00000000    0.00000000    0.00000000
     atom   10 type  2   force =     0.00000000    0.00000000    0.00000000
     atom   11 type  3   force =     0.00000000    0.00000000    0.00000000
     atom   12 type  4   force =     0.00000000    0.00000000    0.00000000
     atom   13 type  1   force =     0.00000000    0.00000000    0.00000000
     atom   14 type  2   force =     0.00000000    0.00000000    0.00000000
     atom   15 type  3   force =     0.00000000    0.00000000    0.00000000
     atom   16 type  4   force =     0.00000000    0.00000000    0.00000000
     atom   17 type  1   force =     0.00000000    0.00000000    0.00000000
     atom   18 type  2   force =     0.00000000    0.00000000    0.00000000
     atom   19 type  3   force =     0.00000000    0.00000000    0.00000000
     atom   20 type  4   force =     0.00000000    0.00000000    0.00000000
     atom   21 type  1   force =     0.00000000    0.00000000    0.00000000
     atom   22 type  2   force =     0.00000000    0.00000000    0.00000000
     atom   23 type  3   force =     0.00000000    0.00000000    0.00000000
     atom   24 type  4   force =     0.00000000    0.00000000    0.00000000
     atom   25 type  1   force =     0.00000000    0.00000000    0.00000000
     atom   26 type  2   force =     0.00000000    0.00000000    0.00000000
     atom   27 type  3   force =     0.00000000    0.00000000    0.00000000
     atom   28 type  4   force =     0.00000000    0.00000000    0.00000000
     atom   29 type  1   force =     0.00000000    0.00000000    0.00000000
     atom   30 type  2   force =     0.00000000    0.00000000    0.00000000
     atom   31 type  3   force =     0.00000000    0.00000000    0.00000000
     atom   32 type  4   force =     0.00000000    0.00000000    0.00000000
     atom   33 type  1   force =     0.00000000    0.00000000    0.00000000
     atom   34 type  2   force =     0.00000000    0.00000000    0.00000000
     atom   35 type  3   force =     0.00000000    0.00000000    0.00000000
     atom   36 type  4   force =     0.00000000    0.00000000    0.00000000
     The SCF correction term to forces
     atom    1 type  1   force =    -0.00005338    0.00001419    0.00000923
     atom    2 type  2   force =     0.00001241   -0.00016281   -0.00000923
     atom    3 type  3   force =    -0.00006077    0.00009077   -0.00000810
     atom    4 type  4   force =     0.00006429   -0.00002990    0.00000722
     atom    5 type  1   force =     0.00004275   -0.00015740    0.00000938
     atom    6 type  2   force =     0.00003993    0.00006333   -0.00000909
     atom    7 type  3   force =     0.00018507   -0.00016051   -0.00000845
     atom    8 type  4   force =     0.00016437    0.00000630    0.00000738
     atom    9 type  1   force =     0.00002338    0.00015759    0.00000868
     atom   10 type  2   force =    -0.00003816    0.00007874   -0.00000844
     atom   11 type  3   force =     0.00003994    0.00008699   -0.00000786
     atom   12 type  4   force =    -0.00007105    0.00000978    0.00000680
     atom   13 type  1   force =    -0.00003598    0.00010472    0.00000879
     atom   14 type  2   force =    -0.00006061    0.00005633   -0.00000885
     atom   15 type  3   force =     0.00009060    0.00005550   -0.00000824
     atom   16 type  4   force =    -0.00003400   -0.00001335    0.00000690
     atom   17 type  1   force =     0.00000043   -0.00005539    0.00000900
     atom   18 type  2   force =     0.00008503   -0.00003077   -0.00000904
     atom   19 type  3   force =    -0.00008764    0.00001315   -0.00000863
     atom   20 type  4   force =    -0.00004393    0.00001098    0.00000748
     atom   21 type  1   force =     0.00003804   -0.00003620    0.00000866
     atom   22 type  2   force =    -0.00001140   -0.00004396   -0.00000865
     atom   23 type  3   force =    -0.00000135   -0.00004992   -0.00000850
     atom   24 type  4   force =     0.00007799   -0.00001281    0.00000688
     atom   25 type  1   force =     0.00008174    0.00000353    0.00000899
     atom   26 type  2   force =     0.00003987   -0.00013781   -0.00000895
     atom   27 type  3   force =    -0.00002329    0.00000246   -0.00000847
     atom   28 type  4   force =    -0.00002219   -0.00018363    0.00000740
     atom   29 type  1   force =    -0.00005071   -0.00002040    0.00000936
     atom   30 type  2   force =    -0.00013235    0.00001697   -0.00000945
     atom   31 type  3   force =    -0.00009150   -0.00013475   -0.00000911
     atom   32 type  4   force =    -0.00011259    0.00002888    0.00000769
     atom   33 type  1   force =    -0.00006978    0.00003081    0.00000937
     atom   34 type  2   force =     0.00004054    0.00010106   -0.00000885
     atom   35 type  3   force =    -0.00003248    0.00015167   -0.00000850
     atom   36 type  4   force =     0.00000195    0.00013901    0.00000688

     Total force =     0.001665     Total SCF correction =     0.000683
     SCF correction compared to forces is large: reduce conv_thr to get better values

     Computing stress (Cartesian axis) and pressure

     negative rho (up, down):  2.344E+00 0.000E+00
          total   stress  (Ry/bohr**3)                   (kbar)     P=     1357.34
   0.01109605   0.00000000   0.00000000         1632.29        0.00        0.00
   0.00000000   0.01104603   0.00000000            0.00     1624.93        0.00
   0.00000000   0.00000000   0.00553890            0.00        0.00      814.80

     Energy error            =      7.7E-06 Ry
     Gradient error          =      3.5E-04 Ry/Bohr

     bfgs converged in   6 scf cycles and   5 bfgs steps
     (criteria: energy <  1.0E-04 Ry, force <  1.0E-03 Ry/Bohr)

     End of BFGS Geometry Optimization

     Final energy             =   -4658.7485015565 Ry

     File outdir/pwscf.bfgs deleted, as requested
Begin final coordinates

ATOMIC_POSITIONS (angstrom)
Hf            0.9176680224        0.9177019738        0.9173521276
Nb            0.9173234497        2.7526248949        2.7525186559
Ta            2.7527284347        0.9173930264        2.7525073352
Zr            2.7522343302        2.7524120661        0.9176242062
Hf            0.9177049499        4.5876836806        0.9173485170
Nb            0.9173393046        6.4225621002        2.7525199979
Ta            2.7527381860        4.5873684005        2.7525078690
Zr            2.7522121020        6.4222559905        0.9176220620
Hf            0.9176377821        8.2576059596        0.9173508845
Nb            0.9173151100       10.0926521295        2.7525204402
Ta            2.7527055935        8.2573505107        2.7525105776
Zr            2.7521841910       10.0923909531        0.9176248834
Hf            4.5876252465        0.9177395962        0.9173471000
Nb            4.5873280794        2.7526229914        2.7525155282
Ta            6.4227987760        0.9173606716        2.7525060972
Zr            6.4222541303        2.7523801565        0.9176260136
Hf            4.5875872276        4.5876453502        0.9173464303
Nb            4.5873035682        6.4225798169        2.7525198425
Ta            6.4227676683        4.5873976647        2.7525092496
Zr            6.4222605519        6.4222685466        0.9176255743
Hf            4.5876286132        8.2576081386        0.9173484470
Nb            4.5873145691       10.0926342860        2.7525176395
Ta            6.4228155496        8.2573511420        2.7525109737
Zr            6.4223108640       10.0924137859        0.9176270915
Hf            8.2577255535        0.9176494414        0.9173494770
Nb            8.2573161809        2.7526189789        2.7525162168
Ta           10.0927512453        0.9173570606        2.7525054863
Zr           10.0922470453        2.7523662296        0.9176262271
Hf            8.2577340775        4.5877322464        0.9173482188
Nb            8.2573219524        6.4225786718        2.7525175871
Ta           10.0927773926        4.5874121293        2.7525064987
Zr           10.0922625090        6.4222837416        0.9176248013
Hf            8.2577506656        8.2576064873        0.9173469976
Nb            8.2573348820       10.0926400800        2.7525171790
Ta           10.0927535576        8.2573441870        2.7525076957
Zr           10.0922386382       10.0924069134        0.9176260706
End final coordinates

     Writing all to output data dir outdir/pwscf.save/

     General routines

     Parallel routines

   This run was terminated on:   0:47:11  30May2023

   JOB DONE.