     Program PWSCF v.7.2 starts on 30May2023 at 16:45: 9

     Reading input from HfNbTaZr_lattice_16_MD_nsteps_1.in
Warning: card &CELL ignored
Warning: card / ignored

     Current dimensions of program PWSCF are:
     Max number of different atomic species (ntypx) = 10
     Max number of k-points (npk) =  40000
     Max angular momentum in pseudopotentials (lmaxx) =  4

     gamma-point specific algorithms are used

     R & G space division:  proc/nbgrp/npool/nimage =      12
     Subspace diagonalization in iterative solution of the eigenvalue problem:
     a serial algorithm will be used

     Using Slab Decomposition

     bravais-lattice index     =            0
     lattice parameter (alat)  =      13.8706  a.u.
     unit-cell volume          =    5060.0776 (a.u.)^3
     number of atoms/cell      =           17
     number of atomic types    =            5
     number of electrons       =       201.00
     number of Kohn-Sham states=          121
     kinetic-energy cutoff     =     120.0000  Ry
     charge density cutoff     =     480.0000  Ry
     scf convergence threshold =      1.0E-06
     mixing beta               =       0.7000
     number of iterations used =            8  TF        mixing
     energy convergence thresh.=      0.0E+00
     force convergence thresh. =      0.0E+00
     Exchange-correlation=  SLA  PW   PBX  PBC
                           (   1   4   3   4   0   0   0)
     nstep                     =            1

     celldm(1)=  13.870590  celldm(2)=   0.000000  celldm(3)=   0.000000
     celldm(4)=   0.000000  celldm(5)=   0.000000  celldm(6)=   0.000000

     crystal axes: (cart. coord. in units of alat)
               a(1) = (   1.000000   0.000000   0.000000 )
               a(2) = (   0.000000   1.000000   0.000000 )
               a(3) = (   0.000000   0.000000   1.896149 )

     reciprocal axes: (cart. coord. in units 2 pi/alat)
               b(1) = (  1.000000  0.000000  0.000000 )
               b(2) = (  0.000000  1.000000  0.000000 )
               b(3) = (  0.000000  0.000000  0.527385 )

     PseudoPot. # 1 for Hf read from file:
     q-e/pseudo/hf_pbe_v1.uspp.F.UPF
     MD5 check sum: 8ee9378dfe14276e333edf04c5e4aa26
     Pseudo is Ultrasoft + core correction, Zval = 12.0
     Generated by new atomic code, or converted to UPF format
     Using radial grid of  921 points,  8 beta functions with:
                l(1) =   0
                l(2) =   0
                l(3) =   0
                l(4) =   1
                l(5) =   1
                l(6) =   2
                l(7) =   2
                l(8) =   3
     Q(r) pseudized with  6 coefficients,  rinner =    1.200   1.200   1.200
                                                       1.200   1.200   1.200
                                                       1.200

     PseudoPot. # 2 for Nb read from file:
     q-e/pseudo/nb_pbe_v1.uspp.F.UPF
     MD5 check sum: 573aab8a2fa660278ed4a62cd769473f
     Pseudo is Ultrasoft + core correction, Zval = 13.0
     Generated by new atomic code, or converted to UPF format
     Using radial grid of  887 points,  6 beta functions with:
                l(1) =   0
                l(2) =   0
                l(3) =   1
                l(4) =   1
                l(5) =   2
                l(6) =   2
     Q(r) pseudized with  6 coefficients,  rinner =    1.000   1.000   1.000
                                                       1.000   1.000

     PseudoPot. # 3 for Ta read from file:
     q-e/pseudo/ta_pbe_v1.uspp.F.UPF
     MD5 check sum: f8bbe9446314a3b8ea5d9f3e3836c939
     Pseudo is Ultrasoft + core correction, Zval = 13.0
     Generated by new atomic code, or converted to UPF format
     Using radial grid of  921 points,  7 beta functions with:
                l(1) =   0
                l(2) =   0
                l(3) =   1
                l(4) =   1
                l(5) =   2
                l(6) =   2
                l(7) =   3
     Q(r) pseudized with  6 coefficients,  rinner =    1.300   1.300   1.300
                                                       1.300   1.300   1.300
                                                       1.300

     PseudoPot. # 4 for Zr read from file:
     q-e/pseudo/zr_pbe_v1.uspp.F.UPF
     MD5 check sum: 5db81b1e868ab7776c4564c113de050b
     Pseudo is Ultrasoft + core correction, Zval = 12.0
     Generated by new atomic code, or converted to UPF format
     Using radial grid of  887 points,  6 beta functions with:
                l(1) =   0
                l(2) =   0
                l(3) =   1
                l(4) =   1
                l(5) =   2
                l(6) =   2
     Q(r) pseudized with  6 coefficients,  rinner =    1.200   1.200   1.200
                                                       1.200   1.200

     PseudoPot. # 5 for H  read from file:
     q-e/pseudo/h_pbe_v1.4.uspp.F.UPF
     MD5 check sum: 761ae9a214b05c3daf00ab9f6b793d6f
     Pseudo is Ultrasoft, Zval =  1.0
     Generated by new atomic code, or converted to UPF format
     Using radial grid of  615 points,  2 beta functions with:
                l(1) =   0
                l(2) =   0
     Q(r) pseudized with  8 coefficients,  rinner =    0.700

     atomic species   valence    mass     pseudopotential
        Hf            12.00   178.49000     Hf( 1.00)
        Nb            13.00    92.90637     Nb( 1.00)
        Ta            13.00   180.94788     Ta( 1.00)
        Zr            12.00    91.22400     Zr( 1.00)
        H              1.00     2.01400     H ( 1.00)

     Starting magnetic structure
     atomic species   magnetization
        Hf           0.000
        Nb           0.000
        Ta           0.000
        Zr           0.000
        H            0.000

     No symmetry found

   Cartesian axes

     site n.     atom                  positions (alat units)
         1           Hf  tau(   1) = (   0.1249797   0.1249746   0.8174773  )
         2           Nb  tau(   2) = (   0.1250259   0.3749771   1.0599394  )
         3           Ta  tau(   3) = (   0.3751799   0.1250253   1.0787069  )
         4           Zr  tau(   4) = (   0.3749599   0.3750193   0.8264272  )
         5           Hf  tau(   5) = (   0.1249742   0.6249777   0.8174756  )
         6           Nb  tau(   6) = (   0.1250266   0.8749767   1.0599171  )
         7           Ta  tau(   7) = (   0.3751804   0.6250229   1.0787032  )
         8           Zr  tau(   8) = (   0.3749645   0.8750292   0.8264090  )
         9           Hf  tau(   9) = (   0.6249795   0.1249703   0.8174402  )
        10           Nb  tau(  10) = (   0.6250164   0.3749776   1.0600053  )
        11           Ta  tau(  11) = (   0.8747978   0.1250218   1.0787100  )
        12           Zr  tau(  12) = (   0.8750615   0.3750194   0.8264039  )
        13           Hf  tau(  13) = (   0.6249842   0.6249832   0.8174387  )
        14           Nb  tau(  14) = (   0.6250158   0.8749771   1.0599880  )
        15           Ta  tau(  15) = (   0.8747961   0.6250217   1.0787071  )
        16           Zr  tau(  16) = (   0.8750574   0.8750259   0.8263861  )
        17           H   tau(  17) = (   0.6811989   0.5449591   1.7438692  )

     number of k points=     1  Gaussian smearing, width (Ry)=  0.0220
                       cart. coord. in units 2pi/alat
        k(    1) = (   0.0000000   0.0000000   0.0000000), wk =   1.0000000

     Check: negative core charge=   -0.000002
     Generating pointlists ...
     new r_m :   0.1437 (alat units)  1.9925 (a.u.) for type    1
     new r_m :   0.1411 (alat units)  1.9571 (a.u.) for type    2
     new r_m :   0.1460 (alat units)  2.0247 (a.u.) for type    3
     new r_m :   0.1411 (alat units)  1.9571 (a.u.) for type    4
     new r_m :   0.2877 (alat units)  3.9901 (a.u.) for type    5

     Initial potential from superposition of free atoms

     starting charge     192.9760, renormalised to     201.0000

     negative rho (up, down):  5.376E-01 5.376E-01
     Starting wfcs are  209 randomized atomic wfcs

     Self-consistent Calculation

     iteration #  1     ecut=   120.00 Ry     beta= 0.70
     Davidson diagonalization with overlap
     ethr =  1.00E-02,  avg # of iterations =  6.0

     negative rho (up, down):  6.914E-01 6.936E-01

     total energy              =   -2060.76605420 Ry
     estimated scf accuracy    <     197.48515468 Ry

     total magnetization       =    -0.00 Bohr mag/cell
     absolute magnetization    =     0.06 Bohr mag/cell

[...]

     iteration # 21     ecut=   120.00 Ry     beta= 0.70
     Davidson diagonalization with overlap
     c_bands:  1 eigenvalues not converged
     ethr =  1.19E-06,  avg # of iterations = 11.5

[...]

     total energy              =   -2069.56167750 Ry
     estimated scf accuracy    <       0.00000387 Ry

[...]

     iteration # 37     ecut=   120.00 Ry     beta= 0.70
     Davidson diagonalization with overlap
     ethr =  1.77E-09,  avg # of iterations =  3.0

[...]

     Magnetic moment per site  (integrated on atomic sphere of radius R)
     atom   1 (R=0.144)  charge=  9.4302  magn=  0.0000
     atom   2 (R=0.141)  charge= 10.4128  magn= -0.0000
     atom   3 (R=0.146)  charge= 10.3497  magn= -0.0000
     atom   4 (R=0.141)  charge=  9.3932  magn=  0.0000
     atom   5 (R=0.144)  charge=  9.4301  magn=  0.0000
     atom   6 (R=0.141)  charge= 10.4127  magn= -0.0000
     atom   7 (R=0.146)  charge= 10.3496  magn= -0.0000
     atom   8 (R=0.141)  charge=  9.3931  magn= -0.0000
     atom   9 (R=0.144)  charge=  9.4301  magn=  0.0000
     atom  10 (R=0.141)  charge= 10.4138  magn= -0.0000
     atom  11 (R=0.146)  charge= 10.3496  magn= -0.0000
     atom  12 (R=0.141)  charge=  9.3931  magn=  0.0000
     atom  13 (R=0.144)  charge=  9.4299  magn=  0.0000
     atom  14 (R=0.141)  charge= 10.4139  magn= -0.0000
     atom  15 (R=0.146)  charge= 10.3492  magn= -0.0000
     atom  16 (R=0.141)  charge=  9.3930  magn= -0.0000
     atom  17 (R=0.288)  charge=  1.1634  magn=  0.0046

     End of self-consistent calculation

 ------ SPIN UP ------------

          k = 0.0000 0.0000 0.0000 ( 56136 PWs)   bands (ev):

   -63.4653 -63.4613 -63.4609 -63.4579 -56.7865 -56.7814 -56.7773 -56.7739
   -50.0538 -50.0422 -50.0388 -50.0351 -43.5070 -43.4908 -43.4887 -43.4761
   -30.6462 -30.6325 -30.4788 -30.4588 -30.3609 -30.3588 -30.3248 -30.3049
   -30.1049 -30.0744 -30.0576 -30.0565 -27.1927 -26.9586 -26.8570 -26.7819
   -26.7221 -26.7160 -26.6373 -26.6294 -26.5254 -26.5202 -26.4755 -26.2922
   -26.2346 -25.9250 -25.8378 -25.8371 -25.6092 -25.5190 -25.3694 -25.3610
   -25.3370 -25.3315 -25.2428 -25.2294 -22.0324 -21.9426 -21.8701 -21.8521
   -21.6666 -21.6263 -21.5754 -21.5689 -21.5270 -21.4612 -21.4284 -21.3635
    -1.9334  -1.2559  -0.7143  -0.5893  -0.4872  -0.3830   0.1009   0.6287
     0.9114   1.0176   1.0389   1.0394   1.1056   1.1243   1.4133   1.7835
     1.7983   1.9375   2.0105   2.0758   2.1374   2.5182   2.7184   2.8518
     2.9564   3.1062   3.1376   3.1637   3.1911   3.2349   3.3888   3.4119
     3.6207   3.6648   3.8152   3.8210   3.9220   4.0144   4.3742   4.3748
     4.7493   4.8485   4.8772   5.0592   5.1033   5.1798   5.1864   5.3749
     5.5252   5.8232   6.0349   6.1297   6.1682   6.1716   6.2594   6.2656
     6.3115

 ------ SPIN DOWN ----------

          k = 0.0000 0.0000 0.0000 ( 56136 PWs)   bands (ev):

   -63.4653 -63.4613 -63.4609 -63.4579 -56.7865 -56.7814 -56.7773 -56.7739
   -50.0538 -50.0422 -50.0388 -50.0351 -43.5070 -43.4908 -43.4887 -43.4761
   -30.6463 -30.6325 -30.4789 -30.4589 -30.3609 -30.3588 -30.3248 -30.3049
   -30.1049 -30.0744 -30.0576 -30.0565 -27.1926 -26.9586 -26.8570 -26.7819
   -26.7221 -26.7160 -26.6374 -26.6294 -26.5254 -26.5202 -26.4755 -26.2922
   -26.2346 -25.9250 -25.8378 -25.8371 -25.6092 -25.5190 -25.3694 -25.3610
   -25.3370 -25.3315 -25.2428 -25.2294 -22.0324 -21.9426 -21.8701 -21.8521
   -21.6666 -21.6263 -21.5754 -21.5689 -21.5270 -21.4612 -21.4284 -21.3635
    -1.9334  -1.2559  -0.7143  -0.5893  -0.4872  -0.3830   0.1009   0.6287
     0.9114   1.0176   1.0389   1.0394   1.1055   1.1243   1.4133   1.7835
     1.7983   1.9375   2.0105   2.0758   2.1374   2.5182   2.7184   2.8518
     2.9564   3.1062   3.1376   3.1637   3.1911   3.2349   3.3888   3.4119
     3.6207   3.6648   3.8153   3.8210   3.9246   4.0144   4.3741   4.3748
     4.7494   4.8485   4.8772   5.0592   5.1033   5.1798   5.1864   5.3749
     5.5253   5.8232   6.0348   6.1297   6.1682   6.1716   6.2594   6.2655
     6.3115

     the Fermi energy is     3.9753 ev

!    total energy              =   -2069.56168204 Ry
     estimated scf accuracy    <       0.00000098 Ry
     smearing contrib. (-TS)   =      -0.05526369 Ry
     internal energy E=F+TS    =   -2069.50641835 Ry

     total magnetization       =     0.00 Bohr mag/cell
     absolute magnetization    =     0.01 Bohr mag/cell

     convergence has been achieved in  37 iterations

     negative rho (up, down):  5.271E-01 5.271E-01

     Forces acting on atoms (cartesian axes, Ry/au):

     atom    1 type  1   force =     0.00005619    0.00016729   -0.33679287
     atom    2 type  2   force =     0.00002590    0.00006348    0.43481235
     atom    3 type  3   force =    -0.00067063   -0.00006562    0.29316266
     atom    4 type  4   force =     0.00031747    0.00005267   -0.39045448
     atom    5 type  1   force =     0.00006615   -0.00006984   -0.33706239
     atom    6 type  2   force =    -0.00002973   -0.00001509    0.43480889
     atom    7 type  3   force =    -0.00078823    0.00001747    0.29390804
     atom    8 type  4   force =     0.00040092   -0.00020059   -0.39034278
     atom    9 type  1   force =     0.00006344    0.00009770   -0.33786410
     atom   10 type  2   force =     0.00004059   -0.00011928    0.43515337
     atom   11 type  3   force =     0.00064182   -0.00010218    0.29323110
     atom   12 type  4   force =    -0.00043725    0.00003406   -0.39053167
     atom   13 type  1   force =     0.00003927    0.00004559   -0.33840736
     atom   14 type  2   force =     0.00009295    0.00023243    0.43471978
     atom   15 type  3   force =     0.00070606    0.00004768    0.29454399
     atom   16 type  4   force =    -0.00053221   -0.00016138   -0.39037962
     atom   17 type  5   force =     0.00000731   -0.00002438   -0.00250491
     The non-local contrib.  to forces
     atom    1 type  1   force =    -0.00017627   -0.00035766   -0.25636595
     atom    2 type  2   force =     0.00023051    0.00001904   -0.24080107
     atom    3 type  3   force =     0.00012804    0.00048441    0.24919537
     atom    4 type  4   force =    -0.00048296    0.00006668    0.04577710
     atom    5 type  1   force =    -0.00021216   -0.00055411   -0.25651167
     atom    6 type  2   force =     0.00025947    0.00020802   -0.24110599
     atom    7 type  3   force =     0.00098946   -0.00009292    0.25116047
     atom    8 type  4   force =    -0.00029494    0.00001258    0.04617037
     atom    9 type  1   force =    -0.00024917   -0.00021766   -0.25739577
     atom   10 type  2   force =    -0.00001422    0.00046698   -0.23886854
     atom   11 type  3   force =    -0.00065257    0.00065414    0.25001486
     atom   12 type  4   force =     0.00059160    0.00011863    0.04601577
     atom   13 type  1   force =    -0.00027253   -0.00052628   -0.25682489
     atom   14 type  2   force =    -0.00006455   -0.00019670   -0.23975480
     atom   15 type  3   force =    -0.00155417   -0.00026652    0.25229858
     atom   16 type  4   force =     0.00043913   -0.00004190    0.04612587
     atom   17 type  5   force =     0.00001277    0.00000493   -0.00044060
     The ionic contribution  to forces
     atom    1 type  1   force =     0.00410245    0.00147298  -58.11595899
     atom    2 type  2   force =     0.00295107   -0.01236368   53.45408500
     atom    3 type  3   force =    -0.06491681   -0.01673419   59.79650185
     atom    4 type  4   force =    -0.01055954   -0.00865059  -55.59213528
     atom    5 type  1   force =     0.00593680    0.00557057  -58.11787113
     atom    6 type  2   force =     0.00136001    0.01942284   53.46226385
     atom    7 type  3   force =    -0.07559093    0.00892010   59.75566448
     atom    8 type  4   force =    -0.01124488    0.00237848  -55.59520262
     atom    9 type  1   force =     0.00034452    0.00210362  -58.16244399
     atom   10 type  2   force =    -0.00979102   -0.02211579   53.40067655
     atom   11 type  3   force =     0.07042643   -0.01839496   59.78383870
     atom   12 type  4   force =     0.00708177   -0.01045034  -55.59670431
     atom   13 type  1   force =    -0.00148533    0.00486657  -58.16538494
     atom   14 type  2   force =    -0.00791137    0.02851991   53.42609470
     atom   15 type  3   force =     0.08181930    0.01136481   59.73338156
     atom   16 type  4   force =     0.00768822    0.00428857  -55.59953246
     atom   17 type  5   force =    -0.00021070   -0.00019889    2.13272702
     The local contribution  to forces
     atom    1 type  1   force =    -0.00390772   -0.00095493   58.05456474
     atom    2 type  2   force =    -0.00317120    0.01239758  -52.80055254
     atom    3 type  3   force =     0.06385965    0.01604651  -59.78676358
     atom    4 type  4   force =     0.01107171    0.00865350   55.16792405
     atom    5 type  1   force =    -0.00567732   -0.00499715   58.05635781
     atom    6 type  2   force =    -0.00166699   -0.01962127  -52.80839358
     atom    7 type  3   force =     0.07350874   -0.00870769  -59.74737584
     atom    8 type  4   force =     0.01169118   -0.00261081   55.17079342
     atom    9 type  1   force =     0.00003480   -0.00187422   58.10068443
     atom   10 type  2   force =     0.00986461    0.02148801  -52.74885464
     atom   11 type  3   force =    -0.06882307    0.01749310  -59.77496080
     atom   12 type  4   force =    -0.00782877    0.01036209   55.17222739
     atom   13 type  1   force =     0.00185395   -0.00417608   58.10260396
     atom   14 type  2   force =     0.00807853   -0.02802645  -52.77376784
     atom   15 type  3   force =    -0.07921508   -0.01095742  -59.72573592
     atom   16 type  4   force =    -0.00840845   -0.00440804   55.17517075
     atom   17 type  5   force =     0.00020585    0.00016986   -2.13479000
     The core correction contribution to forces
     atom    1 type  1   force =     0.00000689   -0.00004098   -0.01836715
     atom    2 type  2   force =    -0.00001015   -0.00000168    0.02245348
     atom    3 type  3   force =    -0.00013991    0.00001680    0.03459000
     atom    4 type  4   force =     0.00003372   -0.00000063   -0.01146173
     atom    5 type  1   force =     0.00000295   -0.00004495   -0.01836495
     atom    6 type  2   force =    -0.00000912   -0.00001246    0.02245160
     atom    7 type  3   force =    -0.00014560    0.00001961    0.03465794
     atom    8 type  4   force =     0.00002237    0.00000485   -0.01147794
     atom    9 type  1   force =    -0.00002836    0.00001431   -0.01827216
     atom   10 type  2   force =     0.00000688   -0.00001169    0.02240530
     atom   11 type  3   force =     0.00009888    0.00002292    0.03462467
     atom   12 type  4   force =    -0.00003344   -0.00000414   -0.01147750
     atom   13 type  1   force =    -0.00003958   -0.00004740   -0.01836948
     atom   14 type  2   force =     0.00000672   -0.00000418    0.02241088
     atom   15 type  3   force =     0.00011152    0.00001953    0.03467458
     atom   16 type  4   force =    -0.00002449    0.00000864   -0.01147830
     atom   17 type  5   force =     0.00000000    0.00000000    0.00000000
     The Hubbard contrib.    to forces
     atom    1 type  1   force =     0.00000000    0.00000000    0.00000000
     atom    2 type  2   force =     0.00000000    0.00000000    0.00000000
     atom    3 type  3   force =     0.00000000    0.00000000    0.00000000
     atom    4 type  4   force =     0.00000000    0.00000000    0.00000000
     atom    5 type  1   force =     0.00000000    0.00000000    0.00000000
     atom    6 type  2   force =     0.00000000    0.00000000    0.00000000
     atom    7 type  3   force =     0.00000000    0.00000000    0.00000000
     atom    8 type  4   force =     0.00000000    0.00000000    0.00000000
     atom    9 type  1   force =     0.00000000    0.00000000    0.00000000
     atom   10 type  2   force =     0.00000000    0.00000000    0.00000000
     atom   11 type  3   force =     0.00000000    0.00000000    0.00000000
     atom   12 type  4   force =     0.00000000    0.00000000    0.00000000
     atom   13 type  1   force =     0.00000000    0.00000000    0.00000000
     atom   14 type  2   force =     0.00000000    0.00000000    0.00000000
     atom   15 type  3   force =     0.00000000    0.00000000    0.00000000
     atom   16 type  4   force =     0.00000000    0.00000000    0.00000000
     atom   17 type  5   force =     0.00000000    0.00000000    0.00000000
     The SCF correction term to forces
     atom    1 type  1   force =     0.00000000    0.00000000   -0.00000000
     atom    2 type  2   force =     0.00000000    0.00000000   -0.00000000
     atom    3 type  3   force =     0.00000000    0.00000000   -0.00000000
     atom    4 type  4   force =     0.00000000   -0.00000000   -0.00000000
     atom    5 type  1   force =     0.00000000   -0.00000000   -0.00000000
     atom    6 type  2   force =     0.00000000   -0.00000000   -0.00000000
     atom    7 type  3   force =     0.00000000   -0.00000000   -0.00000000
     atom    8 type  4   force =     0.00000000    0.00000000   -0.00000000
     atom    9 type  1   force =    -0.00000000    0.00000000   -0.00000000
     atom   10 type  2   force =    -0.00000000    0.00000000   -0.00000000
     atom   11 type  3   force =    -0.00000000    0.00000000   -0.00000000
     atom   12 type  4   force =    -0.00000000    0.00000000   -0.00000000
     atom   13 type  1   force =    -0.00000000   -0.00000000   -0.00000000
     atom   14 type  2   force =    -0.00000000   -0.00000000   -0.00000000
     atom   15 type  3   force =    -0.00000000   -0.00000000   -0.00000000
     atom   16 type  4   force =    -0.00000000   -0.00000000   -0.00000000
     atom   17 type  5   force =    -0.00000052   -0.00000060    0.00006494

     Total force =     0.002505     Total SCF correction =     0.000065

     Molecular Dynamics Calculation

     Starting temperature  =   300.00 K

     temperature is set once at start

     mass Hf               =   178.49
     mass Nb               =    92.91
     mass Ta               =   180.95
     mass Zr               =    91.22
     mass H                =     2.01
     Time step             =    21.00 a.u.,  1.0159 femto-seconds

     Entering Dynamics:    iteration =     1
                           time      =   0.0010 pico-seconds

ATOMIC_POSITIONS (angstrom)
Hf            0.9173507110        0.9173135972        6.0002837354    0   0   0
Nb            0.9176900085        2.7523320100        7.7799550803    0   0   0
Ta            2.7538208285        0.9176860149        7.9177084703    0   0   0
Zr            2.7522059512        2.7526418480        6.0659757673    0   0   0
Hf            0.9173105916        4.5873364617        6.0002711019    0   0   0
Nb            0.9176950052        6.4223291151        7.7797918918    0   0   0
Ta            2.7538243094        4.5876680102        7.9176812404    0   0   0
Zr            2.7522395759        6.4227147098        6.0658425039    0   0   0
Hf            4.5873495791        0.9172816749        6.0000109568    0   0   0
Nb            4.5876207816        2.7523359852        7.7804388155    0   0   0
Ta            6.4210161579        0.9176597836        7.9177312144    0   0   0
Zr            6.4229515852        2.7526427058        6.0658048318    0   0   0
Hf            4.5873841500        4.5873764414        6.0000000000    0   0   0
Nb            4.5876157176        6.4223321265        7.7803118750    0   0   0
Ta            6.4210034632        4.5876595310        7.9177105287    0   0   0
Zr            6.4229215841        6.4226899848        6.0656737289    0   0   0
H             5.0000004645        3.9999984504       12.5274679724

     kinetic energy (Ekin) =           0.55137389 Ry
     temperature           =       58036.70163101 K
     Ekin + Etot (const)   =       -2069.01030814 Ry

     File ./pwscf.msd.dat deleted, as requested

     The maximum number of steps has been reached.

     End of molecular dynamics calculation

     diffusion coefficients :
     atom     1   D =       0.00000000 cm^2/s
     atom     2   D =       0.00000000 cm^2/s
     atom     3   D =       0.00000000 cm^2/s
     atom     4   D =       0.00000000 cm^2/s
     atom     5   D =       0.00000000 cm^2/s
     atom     6   D =       0.00000000 cm^2/s
     atom     7   D =       0.00000000 cm^2/s
     atom     8   D =       0.00000000 cm^2/s
     atom     9   D =       0.00000000 cm^2/s
     atom    10   D =       0.00000000 cm^2/s
     atom    11   D =       0.00000000 cm^2/s
     atom    12   D =       0.00000000 cm^2/s
     atom    13   D =       0.00000000 cm^2/s
     atom    14   D =       0.00000000 cm^2/s
     atom    15   D =       0.00000000 cm^2/s
     atom    16   D =       0.00000000 cm^2/s
     atom    17   D =       0.00121848 cm^2/s

     < D > =       0.00121848 cm^2/s

     Writing all to output data dir ./pwscf.save/

     General routines

     Parallel routines

   This run was terminated on:  16:59:26  30May2023

   JOB DONE.