     Program PWSCF v.7.2 starts on 30May2023 at 14:40:47

     Reading input from HfNbTaZr_random_lattice_16_relax.in
Warning: card &CELL ignored
Warning: card / ignored

     Current dimensions of program PWSCF are:
     Max number of different atomic species (ntypx) = 10
     Max number of k-points (npk) =  40000
     Max angular momentum in pseudopotentials (lmaxx) =  4
     Found identity + (  0.0000 -0.5000  0.0000) symmetry
     This is a supercell, fractional translations are disabled

     R & G space division:  proc/nbgrp/npool/nimage =      12
     Subspace diagonalization in iterative solution of the eigenvalue problem:
     a serial algorithm will be used

     Using Slab Decomposition

     bravais-lattice index     =            0
     lattice parameter (alat)  =      13.8706  a.u.
     unit-cell volume          =    1334.3040 (a.u.)^3
     number of atoms/cell      =           16
     number of atomic types    =            4
     number of electrons       =       200.00
     number of Kohn-Sham states=          120
     kinetic-energy cutoff     =     120.0000  Ry
     charge density cutoff     =     960.0000  Ry
     scf convergence threshold =      1.0E-06
     mixing beta               =       0.7000
     number of iterations used =            8  plain     mixing
     energy convergence thresh.=      1.0E-04
     force convergence thresh. =      1.0E-03
     Exchange-correlation= SLA  PW   PBE  PBE
                           (   1   4   3   4   0   0   0)
     nstep                     =           50

     celldm(1)=  13.870590  celldm(2)=   0.000000  celldm(3)=   0.000000
     celldm(4)=   0.000000  celldm(5)=   0.000000  celldm(6)=   0.000000

     crystal axes: (cart. coord. in units of alat)
               a(1) = (   1.000000   0.000000   0.000000 )
               a(2) = (   0.000000   1.000000   0.000000 )
               a(3) = (   0.000000   0.000000   0.500000 )

     reciprocal axes: (cart. coord. in units 2 pi/alat)
               b(1) = (  1.000000  0.000000  0.000000 )
               b(2) = (  0.000000  1.000000  0.000000 )
               b(3) = (  0.000000  0.000000  2.000000 )

     PseudoPot. # 1 for Hf read from file:
     q-e/pseudo/hf_pbe_v1.uspp.F.UPF
     MD5 check sum: 8ee9378dfe14276e333edf04c5e4aa26
     Pseudo is Ultrasoft + core correction, Zval = 12.0
     Generated by new atomic code, or converted to UPF format
     Using radial grid of  921 points,  8 beta functions with:
                l(1) =   0
                l(2) =   0
                l(3) =   0
                l(4) =   1
                l(5) =   1
                l(6) =   2
                l(7) =   2
                l(8) =   3
     Q(r) pseudized with  6 coefficients,  rinner =    1.200   1.200   1.200
                                                       1.200   1.200   1.200
                                                       1.200

     PseudoPot. # 2 for Nb read from file:
     q-e/pseudo/nb_pbe_v1.uspp.F.UPF
     MD5 check sum: 573aab8a2fa660278ed4a62cd769473f
     Pseudo is Ultrasoft + core correction, Zval = 13.0
     Generated by new atomic code, or converted to UPF format
     Using radial grid of  887 points,  6 beta functions with:
                l(1) =   0
                l(2) =   0
                l(3) =   1
                l(4) =   1
                l(5) =   2
                l(6) =   2
     Q(r) pseudized with  6 coefficients,  rinner =    1.000   1.000   1.000
                                                       1.000   1.000

     PseudoPot. # 3 for Ta read from file:
     q-e/pseudo/ta_pbe_v1.uspp.F.UPF
     MD5 check sum: f8bbe9446314a3b8ea5d9f3e3836c939
     Pseudo is Ultrasoft + core correction, Zval = 13.0
     Generated by new atomic code, or converted to UPF format
     Using radial grid of  921 points,  7 beta functions with:
                l(1) =   0
                l(2) =   0
                l(3) =   1
                l(4) =   1
                l(5) =   2
                l(6) =   2
                l(7) =   3
     Q(r) pseudized with  6 coefficients,  rinner =    1.300   1.300   1.300
                                                       1.300   1.300   1.300
                                                       1.300

     PseudoPot. # 4 for Zr read from file:
     q-e/pseudo/zr_pbe_v1.uspp.F.UPF
     MD5 check sum: 5db81b1e868ab7776c4564c113de050b
     Pseudo is Ultrasoft + core correction, Zval = 12.0
     Generated by new atomic code, or converted to UPF format
     Using radial grid of  887 points,  6 beta functions with:
                l(1) =   0
                l(2) =   0
                l(3) =   1
                l(4) =   1
                l(5) =   2
                l(6) =   2
     Q(r) pseudized with  6 coefficients,  rinner =    1.200   1.200   1.200
                                                       1.200   1.200

     atomic species   valence    mass     pseudopotential
        Hf            12.00   178.49000     Hf( 1.00)
        Nb            13.00    92.90637     Nb( 1.00)
        Ta            13.00   180.94788     Ta( 1.00)
        Zr            12.00    91.22400     Zr( 1.00)

     No symmetry found

   Cartesian axes

     site n.     atom                  positions (alat units)
         1           Hf  tau(   1) = (   0.1362398   0.1362398   0.1362398  )
         2           Nb  tau(   2) = (   0.1362398   0.3637602   0.3637602  )
         3           Ta  tau(   3) = (   0.3637602   0.1362398   0.3637602  )
         4           Zr  tau(   4) = (   0.3637602   0.3637602   0.1362398  )
         5           Hf  tau(   5) = (   0.1362398   0.6362398   0.1362398  )
         6           Nb  tau(   6) = (   0.1362398   0.8637602   0.3637602  )
         7           Ta  tau(   7) = (   0.3637602   0.6362398   0.3637602  )
         8           Zr  tau(   8) = (   0.3637602   0.8637602   0.1362398  )
         9           Hf  tau(   9) = (   0.6362398   0.1362398   0.1362398  )
        10           Nb  tau(  10) = (   0.6362398   0.3637602   0.3637602  )
        11           Ta  tau(  11) = (   0.8637602   0.1362398   0.3637602  )
        12           Zr  tau(  12) = (   0.8637602   0.3637602   0.1362398  )
        13           Hf  tau(  13) = (   0.6362398   0.6362398   0.1362398  )
        14           Nb  tau(  14) = (   0.6362398   0.8637602   0.3637602  )
        15           Ta  tau(  15) = (   0.8637602   0.6362398   0.3637602  )
        16           Zr  tau(  16) = (   0.8637602   0.8637602   0.1362398  )

     number of k points=     1  Gaussian smearing, width (Ry)=  0.0220
                       cart. coord. in units 2pi/alat
        k(    1) = (   0.0000000   0.0000000   0.0000000), wk =   2.0000000

     Initial potential from superposition of free atoms

     starting charge     191.9760, renormalised to     200.0000

     negative rho (up, down):  1.060E+00 0.000E+00
     Starting wfcs are  208 randomized atomic wfcs

     Self-consistent Calculation

     iteration #  1     ecut=   120.00 Ry     beta= 0.70
     Davidson diagonalization with overlap
     ethr =  1.00E-02,  avg # of iterations =  2.0

     negative rho (up, down):  1.029E+00 0.000E+00

     total energy              =   -2067.01878726 Ry
     estimated scf accuracy    <       3.99589402 Ry

[...]

     End of self-consistent calculation

          k = 0.0000 0.0000 0.0000 ( 29557 PWs)   bands (ev):

   -39.0652 -39.0590 -39.0548 -39.0500 -32.7770 -32.7711 -32.7615 -32.7542
   -26.3458 -26.3186 -26.3090 -26.2997 -19.9912 -19.9799 -19.9498 -19.9125
    -6.8710  -6.7555  -6.6505  -6.6116  -6.3784  -6.3462  -6.3363  -6.1893
    -6.1857  -6.1602  -6.0836  -6.0431  -3.7412  -3.5727  -3.5414  -3.4721
    -3.2889  -3.1157  -2.9957  -2.9007  -2.8145  -2.7521  -2.7232  -2.4283
    -2.3642  -2.2405  -2.1703  -2.1359  -2.0047  -1.7955  -1.4688  -1.3897
    -1.3842  -1.3053  -0.9968  -0.9367   1.4466   1.4934   1.7012   1.7962
     1.9321   1.9483   2.0304   2.0915   2.1353   2.1511   2.2011   2.2345
    20.3955  20.8724  21.2572  21.5081  21.7775  22.2347  22.3276  22.7632
    22.9666  23.2352  23.3786  23.5576  23.6322  23.7337  23.8072  23.9210
    23.9630  24.0528  24.5316  24.6358  25.1984  25.4530  25.4586  26.0965
    26.4189  26.5972  26.6792  26.7024  26.7982  26.9183  27.0446  27.2738
    27.5007  27.5624  27.6133  27.6337  27.8318  28.0722  28.2908  28.3143
    28.3338  28.3443  28.3459  28.3544  29.1863  29.5794  29.5870  29.6690
    29.8234  29.9695  30.0210  30.0926  31.5081  31.6005  31.8676  31.9814

     the Fermi energy is    27.8057 ev

!    total energy              =   -2068.56099351 Ry
     estimated scf accuracy    <       0.00000060 Ry
     smearing contrib. (-TS)   =      -0.04996277 Ry
     internal energy E=F+TS    =   -2068.51103074 Ry

     The total energy is F=E-TS. E is the sum of the following terms:
     one-electron contribution =      32.17881254 Ry
     hartree contribution      =     162.60482599 Ry
     xc contribution           =    -628.16061056 Ry
     ewald contribution        =   -1635.13405871 Ry

     convergence has been achieved in  17 iterations

[...]

     Forces acting on atoms (cartesian axes, Ry/au):

     atom    1 type  1   force =    -0.27256768   -0.26945900   -0.24861956
     atom    2 type  2   force =    -0.24230380    0.24265504    0.19897078
     atom    3 type  3   force =     0.24273529   -0.26170640    0.24545133
     atom    4 type  4   force =     0.27227195    0.28878603   -0.19580392
     atom    5 type  1   force =    -0.27279585   -0.26980463   -0.24866437
     atom    6 type  2   force =    -0.24231350    0.24261547    0.19893911
     atom    7 type  3   force =     0.24273476   -0.26193574    0.24548063
     atom    8 type  4   force =     0.27233709    0.28877780   -0.19580453
     atom    9 type  1   force =    -0.27226718   -0.26958894   -0.24862189
     atom   10 type  2   force =    -0.24233794    0.24265551    0.19902214
     atom   11 type  3   force =     0.24244405   -0.26182988    0.24549509
     atom   12 type  4   force =     0.27199891    0.28895069   -0.19588164
     atom   13 type  1   force =    -0.27197063   -0.26962500   -0.24864132
     atom   14 type  2   force =    -0.24229876    0.24263020    0.19902642
     atom   15 type  3   force =     0.24238267   -0.26181134    0.24550200
     atom   16 type  4   force =     0.27195060    0.28869018   -0.19585026
     The non-local contrib.  to forces
     atom    1 type  1   force =     0.09297362    0.07873254    0.11207561
     atom    2 type  2   force =     0.28368842   -0.17240416   -0.01638241
     atom    3 type  3   force =    -0.06143480    0.06437285   -0.20518150
     atom    4 type  4   force =    -0.26754087   -0.19212132   -0.04956987
     atom    5 type  1   force =     0.09284177    0.07848768    0.11201822
     atom    6 type  2   force =     0.28374865   -0.17244712   -0.01640442
     atom    7 type  3   force =    -0.06145799    0.06410853   -0.20514316
     atom    8 type  4   force =    -0.26750739   -0.19212620   -0.04958693
     atom    9 type  1   force =     0.09305967    0.07863676    0.11205130
     atom   10 type  2   force =     0.28354410   -0.17236684   -0.01636278
[...]

[...]

     Energy error            =      5.6E-01 Ry
     Gradient error          =      2.0E-01 Ry/Bohr

[...]

     energy             old  =   -2068.5609935145 Ry
     energy             new  =   -2069.1228659884 Ry

     CASE: energy            _new < energy            _old

[...]

     iteration #  1     ecut=   120.00 Ry     beta= 0.70
     Davidson diagonalization with overlap
     c_bands:  1 eigenvalues not converged
     ethr =  1.00E-06,  avg # of iterations = 20.0

[...]

     WARNING: bfgs curvature condition failed, Theta= 0.653
     new trust radius        =       0.0136285323 bohr
     new conv_thr            =       0.0000001044 Ry

[...]

     CASE: energy            _new > energy            _old

[...]

     WARNING: info= 39 for Hessian
     uphill step: resetting bfgs history

[...]

     Threshold (ethr) on eigenvalues was too large:
     Diagonalizing with lowered threshold

     Davidson diagonalization with overlap
     ethr =  4.84E-08,  avg # of iterations =  4.0

[...]

     WARNING: info= 42 for Hessian
     new trust radius        =       0.0147661118 bohr
     new conv_thr            =       0.0000000775 Ry

[...]

     CASE: energy            _new > energy            _old

[...]

     WARNING: info= 42 for Hessian
     uphill step: resetting bfgs history

[...]

     WARNING: bfgs curvature condition failed, Theta= 0.918
     new trust radius        =       0.0274738862 bohr
     new conv_thr            =       0.0000002351 Ry

[...]

     Total force =     0.035033     Total SCF correction =     0.001917

[...]

     Total force =     0.006227     Total SCF correction =     0.002065
     SCF correction compared to forces is large: reduce conv_thr to get better values

[...]

     number of scf cycles    =  20
     number of bfgs steps    =  17

     energy             old  =   -2069.4651672538 Ry
     energy             new  =   -2069.4651940580 Ry

     CASE: energy            _new < energy            _old

     new trust radius        =       0.0054102549 bohr
     new conv_thr            =       0.0000000100 Ry

ATOMIC_POSITIONS (angstrom)
Hf            0.9173507110        0.9173135972        0.8943342515
Nb            0.9176900085        2.7523320100        2.6740055964
Ta            2.7538208285        0.9176860149        2.8117589864
Zr            2.7522059512        2.7526418480        0.9600262834
Hf            0.9173105916        4.5873364617        0.8943216180
Nb            0.9176950052        6.4223291151        2.6738424079
Ta            2.7538243094        4.5876680102        2.8117317565
Zr            2.7522395759        6.4227147098        0.9598930200
Hf            4.5873495791        0.9172816749        0.8940614729
Nb            4.5876207816        2.7523359852        2.6744893316
Ta            6.4210161579        0.9176597836        2.8117817305
Zr            6.4229515852        2.7526427058        0.9598553479
Hf            4.5873841500        4.5873764414        0.8940505161
Nb            4.5876157176        6.4223321265        2.6743623911
Ta            6.4210034632        4.5876595310        2.8117610448
Zr            6.4229215841        6.4226899848        0.9597242450

     Writing config-only to output data dir outdir/pwscf.save/
     NEW-OLD atomic charge density approx. for the potential

[...]

     Self-consistent Calculation

[...]

     Threshold (ethr) on eigenvalues was too large:
     Diagonalizing with lowered threshold

     Davidson diagonalization with overlap
     ethr =  3.28E-08,  avg # of iterations =  4.0

[...]

     total energy              =   -2069.46521320 Ry
     estimated scf accuracy    <       0.00000005 Ry

     iteration # 13     ecut=   120.00 Ry     beta= 0.70
     Davidson diagonalization with overlap
     ethr =  1.35E-11,  avg # of iterations =  2.0

[...]

     End of self-consistent calculation

          k = 0.0000 0.0000 0.0000 ( 29557 PWs)   bands (ev):

   -39.0631 -39.0580 -39.0546 -39.0508 -32.5761 -32.5709 -32.5627 -32.5561
   -26.2424 -26.2143 -26.2129 -26.2026 -19.7349 -19.7307 -19.7031 -19.6703
    -6.4404  -6.4066  -6.3969  -6.3536  -6.2258  -6.2084  -6.1830  -6.1181
    -6.0801  -6.0539  -6.0195  -5.9328  -3.3685  -3.2594  -3.1316  -3.1093
    -3.0007  -2.8867  -2.8744  -2.8706  -2.7838  -2.7113  -2.4662  -2.4116
    -2.3865  -2.3388  -1.9796  -1.8676  -1.7396  -1.6125  -1.5929  -1.3686
    -1.2983  -1.1803  -0.9544  -0.8488   1.5102   1.5374   1.8102   1.8903
     1.9546   2.0631   2.1544   2.2142   2.2710   2.3163   2.3479   2.3660
    20.3032  20.7527  21.1836  21.4486  22.0219  22.1769  22.2124  23.1159
    23.4003  23.4988  23.5227  23.7649  23.8651  24.0838  24.1507  24.2962
    24.3144  24.3837  24.3926  24.4602  25.0436  25.3401  26.1354  26.4690
    26.6118  26.6715  26.7227  26.7440  26.7773  26.8885  26.8924  27.0210
    27.0876  27.1198  27.2039  27.2345  27.3053  27.3921  27.7688  28.1138
    28.1863  28.2485  29.2440  29.2903  29.4519  29.5641  29.7851  29.8262
    30.5103  30.8705  31.1776  31.4050  31.4679  31.4986  31.5591  31.5889

     the Fermi energy is    27.3356 ev

!    total energy              =   -2069.46521320 Ry
     estimated scf accuracy    <          6.6E-09 Ry
     smearing contrib. (-TS)   =      -0.06852393 Ry
     internal energy E=F+TS    =   -2069.39668927 Ry

     The total energy is F=E-TS. E is the sum of the following terms:
     one-electron contribution =      64.70971913 Ry
     hartree contribution      =     146.70916766 Ry
     xc contribution           =    -627.46170662 Ry
     ewald contribution        =   -1653.35386944 Ry

     convergence has been achieved in  13 iterations

     negative rho (up, down):  1.054E+00 0.000E+00

     Forces acting on atoms (cartesian axes, Ry/au):

     atom    1 type  1   force =     0.00009814    0.00014077   -0.00003896
     atom    2 type  2   force =    -0.00018068    0.00013926   -0.00007641
     atom    3 type  3   force =     0.00017998   -0.00007139   -0.00016444
     atom    4 type  4   force =    -0.00001020   -0.00010271    0.00020680
     atom    5 type  1   force =     0.00012743    0.00011568   -0.00003888
     atom    6 type  2   force =    -0.00017348    0.00010817   -0.00003080
     atom    7 type  3   force =     0.00016940   -0.00015467   -0.00016600
     atom    8 type  4   force =    -0.00005358   -0.00017808    0.00023178
     atom    9 type  1   force =     0.00018510    0.00015180   -0.00003498
     atom   10 type  2   force =    -0.00014854    0.00013033    0.00002801
     atom   11 type  3   force =    -0.00003045   -0.00006705   -0.00016719
     atom   12 type  4   force =    -0.00009467   -0.00013127    0.00019815
     atom   13 type  1   force =     0.00015274    0.00010085   -0.00003626
     atom   14 type  2   force =    -0.00015262    0.00011941    0.00005119
     atom   15 type  3   force =    -0.00001308   -0.00015546   -0.00018445
     atom   16 type  4   force =    -0.00005548   -0.00014566    0.00022242
     The non-local contrib.  to forces
     atom    1 type  1   force =    -0.00009516   -0.00023640    0.04387509
     atom    2 type  2   force =     0.00005287   -0.00015040   -0.07856637
     atom    3 type  3   force =     0.00183050   -0.00010657    0.04115116
     atom    4 type  4   force =     0.00235859    0.00020769    0.00506384
     atom    5 type  1   force =    -0.00016663   -0.00024259    0.04387864
     atom    6 type  2   force =     0.00005976   -0.00009006   -0.07879226
     atom    7 type  3   force =     0.00183105   -0.00012614    0.04109255
     atom    8 type  4   force =     0.00237988    0.00022875    0.00489734
     atom    9 type  1   force =    -0.00011710   -0.00035232    0.04212612
     atom   10 type  2   force =    -0.00001686   -0.00015104   -0.07620332
     atom   11 type  3   force =    -0.00169283   -0.00013994    0.04155756
     atom   12 type  4   force =    -0.00212418    0.00023173    0.00487704
     atom   13 type  1   force =    -0.00004720   -0.00012069    0.04212435
     atom   14 type  2   force =    -0.00002559   -0.00008940   -0.07646279
     atom   15 type  3   force =    -0.00169973   -0.00013688    0.04152862
     atom   16 type  4   force =    -0.00214382    0.00020509    0.00471416
     The ionic contribution  to forces
     atom    1 type  1   force =     0.00084330    0.00247309   -0.07552084
     atom    2 type  2   force =    -0.00431393    0.00353026    1.47918998
     atom    3 type  3   force =    -0.05931437   -0.00233126   -0.32603591
     atom    4 type  4   force =    -0.02292280   -0.00012914   -1.07893677
     atom    5 type  1   force =     0.00240409    0.00188465   -0.07556595
     atom    6 type  2   force =    -0.00418077    0.00173371    1.48059738
     atom    7 type  3   force =    -0.05956381   -0.00320974   -0.32553241
     atom    8 type  4   force =    -0.02493863   -0.00411956   -1.07806734
     atom    9 type  1   force =     0.00276104    0.00444117   -0.05605595
     atom   10 type  2   force =    -0.00092077    0.00325773    1.45864181
     atom   11 type  3   force =     0.06235741   -0.00195678   -0.32901630
     atom   12 type  4   force =     0.02146816   -0.00158838   -1.07464290
     atom   13 type  1   force =     0.00118074   -0.00017829   -0.05610411
     atom   14 type  2   force =    -0.00100050    0.00202557    1.45963625
     atom   15 type  3   force =     0.06273143   -0.00315480   -0.32880655
     atom   16 type  4   force =     0.02340942   -0.00267823   -1.07378040
     The local contribution  to forces
     atom    1 type  1   force =    -0.00058682   -0.00190021    0.02202719
     atom    2 type  2   force =     0.00407200   -0.00334638   -1.39973752
     atom    3 type  3   force =     0.05758311    0.00241201    0.28659183
     atom    4 type  4   force =     0.02060829   -0.00032860    1.07249710
     atom    5 type  1   force =    -0.00216222   -0.00162277    0.02206977
     atom    6 type  2   force =     0.00393252   -0.00146760   -1.40086499
     atom    7 type  3   force =     0.05780604    0.00309595    0.28614544
     atom    8 type  4   force =     0.02275102    0.00386458    1.07180152
     atom    9 type  1   force =    -0.00248749   -0.00390831    0.00465358
     atom   10 type  2   force =     0.00080252   -0.00310003   -1.38136195
     atom   11 type  3   force =    -0.06059913    0.00206966    0.28910709
     atom   12 type  4   force =    -0.01948048    0.00120653    1.06837718
     atom   13 type  1   force =    -0.00089669    0.00047019    0.00470313
     atom   14 type  2   force =     0.00089383   -0.00173032   -1.38208025
     atom   15 type  3   force =    -0.06092945    0.00306078    0.28890692
     atom   16 type  4   force =    -0.02155529    0.00235232    1.06768563
     The core correction contribution to forces
     atom    1 type  1   force =    -0.00001766   -0.00004497    0.00958128
     atom    2 type  2   force =    -0.00000410    0.00001126   -0.00097727
     atom    3 type  3   force =     0.00012541    0.00003570   -0.00186504
     atom    4 type  4   force =    -0.00011734   -0.00000996    0.00158907
     atom    5 type  1   force =    -0.00002047   -0.00004003    0.00958173
     atom    6 type  2   force =    -0.00000443    0.00000936   -0.00096813
     atom    7 type  3   force =     0.00012468    0.00002183   -0.00186755
     atom    8 type  4   force =    -0.00011640   -0.00000867    0.00159626
     atom    9 type  1   force =    -0.00001793   -0.00005453    0.00924054
     atom   10 type  2   force =    -0.00000375    0.00001124   -0.00105343
     atom   11 type  3   force =    -0.00013888    0.00003313   -0.00180834
     atom   12 type  4   force =     0.00010784   -0.00000994    0.00159292
     atom   13 type  1   force =    -0.00001515   -0.00003001    0.00924050
     atom   14 type  2   force =    -0.00000334    0.00000936   -0.00104251
     atom   15 type  3   force =    -0.00013911    0.00001851   -0.00181072
     atom   16 type  4   force =     0.00010683   -0.00000881    0.00159986
     The Hubbard contrib.    to forces
     atom    1 type  1   force =     0.00000000    0.00000000    0.00000000
     atom    2 type  2   force =     0.00000000    0.00000000    0.00000000
     atom    3 type  3   force =     0.00000000    0.00000000    0.00000000
     atom    4 type  4   force =     0.00000000    0.00000000    0.00000000
     atom    5 type  1   force =     0.00000000    0.00000000    0.00000000
     atom    6 type  2   force =     0.00000000    0.00000000    0.00000000
     atom    7 type  3   force =     0.00000000    0.00000000    0.00000000
     atom    8 type  4   force =     0.00000000    0.00000000    0.00000000
     atom    9 type  1   force =     0.00000000    0.00000000    0.00000000
     atom   10 type  2   force =     0.00000000    0.00000000    0.00000000
     atom   11 type  3   force =     0.00000000    0.00000000    0.00000000
     atom   12 type  4   force =     0.00000000    0.00000000    0.00000000
     atom   13 type  1   force =     0.00000000    0.00000000    0.00000000
     atom   14 type  2   force =     0.00000000    0.00000000    0.00000000
     atom   15 type  3   force =     0.00000000    0.00000000    0.00000000
     atom   16 type  4   force =     0.00000000    0.00000000    0.00000000
     The SCF correction term to forces
     atom    1 type  1   force =    -0.00004545   -0.00015041   -0.00000144
     atom    2 type  2   force =     0.00001256    0.00009486    0.00001502
     atom    3 type  3   force =    -0.00004461   -0.00008093   -0.00000623
     atom    4 type  4   force =     0.00006313    0.00015763   -0.00000619
     atom    5 type  1   force =     0.00007273    0.00013676   -0.00000282
     atom    6 type  2   force =     0.00001951   -0.00007689   -0.00000255
     atom    7 type  3   force =    -0.00002849    0.00006377   -0.00000379
     atom    8 type  4   force =    -0.00012937   -0.00014283    0.00000425
     atom    9 type  1   force =     0.00004666    0.00002614    0.00000098
     atom   10 type  2   force =    -0.00000961    0.00011277    0.00000515
     atom   11 type  3   force =     0.00004305   -0.00007278   -0.00000696
     atom   12 type  4   force =    -0.00006594    0.00002914   -0.00000584
     atom   13 type  1   force =    -0.00006890   -0.00004002    0.00000012
     atom   14 type  2   force =    -0.00001694   -0.00009546    0.00000073
     atom   15 type  3   force =     0.00002385    0.00005727   -0.00000248
     atom   16 type  4   force =     0.00012744   -0.00001569    0.00000342

     Total force =     0.000924     Total SCF correction =     0.000456
     SCF correction compared to forces is large: reduce conv_thr to get better values

     Computing stress (Cartesian axis) and pressure

     negative rho (up, down):  1.054E+00 0.000E+00
          total   stress  (Ry/bohr**3)                   (kbar)     P=     1556.19
   0.01224168  -0.00000000  -0.00000019         1800.81       -0.00       -0.03
  -0.00000000   0.01210900   0.00000078           -0.00     1781.30        0.11
  -0.00000019   0.00000078   0.00738566           -0.03        0.11     1086.47

     Energy error            =      1.9E-05 Ry
     Gradient error          =      2.3E-04 Ry/Bohr

     bfgs converged in  21 scf cycles and  18 bfgs steps
     (criteria: energy <  1.0E-04 Ry, force <  1.0E-03 Ry/Bohr)

     End of BFGS Geometry Optimization

     Final energy             =   -2069.4652131994 Ry

     File outdir/pwscf.bfgs deleted, as requested
Begin final coordinates

ATOMIC_POSITIONS (angstrom)
Hf            0.9173507110        0.9173135972        0.8943342515
Nb            0.9176900085        2.7523320100        2.6740055964
Ta            2.7538208285        0.9176860149        2.8117589864
Zr            2.7522059512        2.7526418480        0.9600262834
Hf            0.9173105916        4.5873364617        0.8943216180
Nb            0.9176950052        6.4223291151        2.6738424079
Ta            2.7538243094        4.5876680102        2.8117317565
Zr            2.7522395759        6.4227147098        0.9598930200
Hf            4.5873495791        0.9172816749        0.8940614729
Nb            4.5876207816        2.7523359852        2.6744893316
Ta            6.4210161579        0.9176597836        2.8117817305
Zr            6.4229515852        2.7526427058        0.9598553479
Hf            4.5873841500        4.5873764414        0.8940505161
Nb            4.5876157176        6.4223321265        2.6743623911
Ta            6.4210034632        4.5876595310        2.8117610448
Zr            6.4229215841        6.4226899848        0.9597242450
End final coordinates

     Writing all to output data dir outdir/pwscf.save/

     General routines

     Parallel routines

   This run was terminated on:  15:36:36  30May2023

   JOB DONE.