     Program PWSCF v.7.2 starts on 14May2023 at 20:51:58

     Reading input from Ta_3x3x1.in
Warning: card &CELL ignored
Warning: card / ignored

     Current dimensions of program PWSCF are:
     Max number of different atomic species (ntypx) = 10
     Max number of k-points (npk) =  40000
     Max angular momentum in pseudopotentials (lmaxx) =  4

     File outdir/pwscf.md deleted, as requested
     Found identity + (  0.3333  0.0000  0.0000) symmetry
     This is a supercell, fractional translations are disabled
     Message from routine setup:
     using ibrav=0 with symmetry is DISCOURAGED, use correct ibrav instead

     R & G space division:  proc/nbgrp/npool/nimage =      12
     Subspace diagonalization in iterative solution of the eigenvalue problem:
     a serial algorithm will be used

     Using Slab Decomposition

     bravais-lattice index     =            0
     lattice parameter (alat)  =      18.7412  a.u.
     unit-cell volume          =     938.6577 (a.u.)^3
     number of atoms/cell      =            9
     number of atomic types    =            1
     number of electrons       =       117.00
     number of Kohn-Sham states=           71
     kinetic-energy cutoff     =      30.0000  Ry
     charge density cutoff     =     120.0000  Ry
     scf convergence threshold =      1.0E-08
     mixing beta               =       0.7000
     number of iterations used =            8  plain     mixing
     energy convergence thresh.=      1.0E-05
     force convergence thresh. =      1.0E-04
     Exchange-correlation= SLA  PW   PBE  PBE
                           (   1   4   3   4   0   0   0)
     nstep                     =           50

     celldm(1)=  18.741170  celldm(2)=   0.000000  celldm(3)=   0.000000
     celldm(4)=   0.000000  celldm(5)=   0.000000  celldm(6)=   0.000000

     crystal axes: (cart. coord. in units of alat)
               a(1) = (   1.000000   0.000000   0.000000 )
               a(2) = (   0.500000   0.707107   0.000000 )
               a(3) = (   0.000000   0.000000   0.201666 )

     reciprocal axes: (cart. coord. in units 2 pi/alat)
               b(1) = (  1.000000 -0.707107  0.000000 )
               b(2) = (  0.000000  1.414214  0.000000 )
               b(3) = (  0.000000  0.000000  4.958700 )

     PseudoPot. # 1 for Ta read from file:
     q-e/pseudo/ta_pbe_v1.uspp.F.UPF
     MD5 check sum: f8bbe9446314a3b8ea5d9f3e3836c939
     Pseudo is Ultrasoft + core correction, Zval = 13.0
     Generated by new atomic code, or converted to UPF format
     Using radial grid of  921 points,  7 beta functions with:
                l(1) =   0
                l(2) =   0
                l(3) =   1
                l(4) =   1
                l(5) =   2
                l(6) =   2
                l(7) =   3
     Q(r) pseudized with  6 coefficients,  rinner =    1.300   1.300   1.300
                                                       1.300   1.300   1.300
                                                       1.300

     atomic species   valence    mass     pseudopotential
        Ta            13.00   180.94788     Ta( 1.00)

      8 Sym. Ops., with inversion, found

   Cartesian axes

     site n.     atom                  positions (alat units)
         1           Ta  tau(   1) = (   0.0000000   0.0000000   0.1008329  )
         2           Ta  tau(   2) = (   0.3333333   0.0000000   0.1008329  )
         3           Ta  tau(   3) = (   0.6666667   0.0000000   0.1008329  )
         4           Ta  tau(   4) = (   0.1666667   0.2357023   0.1008329  )
         5           Ta  tau(   5) = (   0.5000000   0.2357023   0.1008329  )
         6           Ta  tau(   6) = (   0.8333333   0.2357023   0.1008329  )
         7           Ta  tau(   7) = (   0.3333333   0.4714045   0.1008329  )
         8           Ta  tau(   8) = (   0.6666667   0.4714045   0.1008329  )
         9           Ta  tau(   9) = (   1.0000000   0.4714045   0.1008329  )

     number of k points=     1  Gaussian smearing, width (Ry)=  0.0100
                       cart. coord. in units 2pi/alat
        k(    1) = (   0.0000000   0.0000000   0.0000000), wk =   2.0000000

     Initial potential from superposition of free atoms

     starting charge     116.9900, renormalised to     117.0000

     negative rho (up, down):  8.366E-01 0.000E+00
     Starting wfcs are  117 randomized atomic wfcs

     Self-consistent Calculation

     iteration #  1     ecut=    30.00 Ry     beta= 0.70
     Davidson diagonalization with overlap
     ethr =  1.00E-02,  avg # of iterations =  2.0

     negative rho (up, down):  8.499E-01 0.000E+00

     total energy              =   -1272.82272504 Ry
     estimated scf accuracy    <       2.46673359 Ry

[...]

     total energy              =   -1273.04510615 Ry
     estimated scf accuracy    <       0.00000004 Ry

     iteration # 17     ecut=    30.00 Ry     beta= 0.70
     Davidson diagonalization with overlap
     ethr =  3.10E-11,  avg # of iterations =  1.0

[...]

     End of self-consistent calculation

          k = 0.0000 0.0000 0.0000 (  2629 PWs)   bands (ev):

   -44.9436 -44.8920 -44.8920 -44.8920 -44.8920 -44.8548 -44.8548 -44.8474
   -44.8474 -12.3804 -12.3804 -12.3604 -12.3604 -12.2264 -12.2264 -12.2264
   -12.2264 -11.9538 -11.9537 -11.7582 -11.7582 -11.4506 -11.4337 -11.4337
   -11.4337 -11.4337 -11.3772  -4.8733  -4.8336  -4.8336  -4.8336  -4.8336
    -4.8063  -4.8063  -4.8003  -4.8003  13.6229  16.1914  16.1914  16.1914
    16.1914  17.0755  17.0756  18.5305  18.5305  18.9960  19.5841  19.8172
    19.8172  19.8172  19.8172  20.0348  20.0348  20.0348  20.0348  20.0540
    20.0540  20.1180  20.1180  20.5473  20.5473  20.5568  20.5568  23.6128
    23.8361  23.8361  24.5965  24.5965  24.5965  24.5965  25.8297

     the Fermi energy is    20.2180 ev

!    total energy              =   -1273.04510615 Ry
     estimated scf accuracy    <          5.1E-10 Ry
     smearing contrib. (-TS)   =      -0.01296183 Ry
     internal energy E=F+TS    =   -1273.03214432 Ry

     The total energy is F=E-TS. E is the sum of the following terms:
     one-electron contribution =    -153.92205326 Ry
     hartree contribution      =     156.23706765 Ry
     xc contribution           =    -387.00879747 Ry
     ewald contribution        =    -888.33836125 Ry

     convergence has been achieved in  17 iterations

     negative rho (up, down):  8.573E-01 0.000E+00

     Forces acting on atoms (cartesian axes, Ry/au):

     atom    1 type  1   force =     0.00000000    0.00000000    0.00000000
     atom    2 type  1   force =    -0.00000545    0.00000000    0.00000000
     atom    3 type  1   force =     0.00000545    0.00000000    0.00000000
     atom    4 type  1   force =    -0.00000070   -0.00000591    0.00000000
     atom    5 type  1   force =     0.00000000    0.00000031    0.00000000
     atom    6 type  1   force =     0.00000070   -0.00000591    0.00000000
     atom    7 type  1   force =     0.00000070    0.00000591    0.00000000
     atom    8 type  1   force =    -0.00000070    0.00000591    0.00000000
     atom    9 type  1   force =     0.00000000   -0.00000031    0.00000000
     The non-local contrib.  to forces
     atom    1 type  1   force =     0.00000000    0.00000000    0.00000000
     atom    2 type  1   force =    -0.00000216   -0.00000000   -0.00000000
     atom    3 type  1   force =     0.00000216    0.00000000   -0.00000000
     atom    4 type  1   force =     0.00000005   -0.00000882    0.00000000
     atom    5 type  1   force =     0.00000000   -0.00000155   -0.00000000
     atom    6 type  1   force =    -0.00000005   -0.00000882   -0.00000000
     atom    7 type  1   force =    -0.00000005    0.00000882   -0.00000000
     atom    8 type  1   force =     0.00000005    0.00000882   -0.00000000
     atom    9 type  1   force =     0.00000000    0.00000155   -0.00000000
     The ionic contribution  to forces
     atom    1 type  1   force =    -0.00000000   -0.00000000   -0.00000000
     atom    2 type  1   force =    -0.00000000   -0.00000000    0.00000000
     atom    3 type  1   force =    -0.00000000   -0.00000000    0.00000000
     atom    4 type  1   force =    -0.00000000    0.00000000    0.00000000
     atom    5 type  1   force =     0.00000000    0.00000000   -0.00000000
     atom    6 type  1   force =    -0.00000000    0.00000000   -0.00000000
     atom    7 type  1   force =    -0.00000000   -0.00000000    0.00000000
     atom    8 type  1   force =    -0.00000000   -0.00000000    0.00000000
     atom    9 type  1   force =     0.00000000   -0.00000000    0.00000000
     The local contribution  to forces
     atom    1 type  1   force =     0.00000000    0.00000000    0.00000000
     atom    2 type  1   force =    -0.00004007    0.00000000    0.00000000
     atom    3 type  1   force =     0.00004007    0.00000000    0.00000000
     atom    4 type  1   force =    -0.00001607   -0.00003234    0.00000000
     atom    5 type  1   force =     0.00000000    0.00001229    0.00000000
     atom    6 type  1   force =     0.00001607   -0.00003234    0.00000000
     atom    7 type  1   force =     0.00001607    0.00003235    0.00000000
     atom    8 type  1   force =    -0.00001607    0.00003235    0.00000000
     atom    9 type  1   force =     0.00000000   -0.00001228    0.00000000
     The core correction contribution to forces
     atom    1 type  1   force =     0.00000000    0.00000000    0.00000000
     atom    2 type  1   force =     0.00000011   -0.00000000   -0.00000000
     atom    3 type  1   force =    -0.00000011    0.00000000   -0.00000000
     atom    4 type  1   force =     0.00000015   -0.00000082   -0.00000000
     atom    5 type  1   force =     0.00000000   -0.00000056    0.00000000
     atom    6 type  1   force =    -0.00000015   -0.00000082    0.00000000
     atom    7 type  1   force =    -0.00000015    0.00000082   -0.00000000
     atom    8 type  1   force =     0.00000015    0.00000082    0.00000000
     atom    9 type  1   force =    -0.00000000    0.00000056   -0.00000000
     The Hubbard contrib.    to forces
     atom    1 type  1   force =     0.00000000    0.00000000    0.00000000
     atom    2 type  1   force =     0.00000000    0.00000000    0.00000000
     atom    3 type  1   force =     0.00000000    0.00000000    0.00000000
     atom    4 type  1   force =     0.00000000    0.00000000    0.00000000
     atom    5 type  1   force =     0.00000000    0.00000000    0.00000000
     atom    6 type  1   force =     0.00000000    0.00000000    0.00000000
     atom    7 type  1   force =     0.00000000    0.00000000    0.00000000
     atom    8 type  1   force =     0.00000000    0.00000000    0.00000000
     atom    9 type  1   force =     0.00000000    0.00000000    0.00000000
     The SCF correction term to forces
     atom    1 type  1   force =    -0.00000000    0.00000000   -0.00000000
     atom    2 type  1   force =     0.00003666   -0.00000000    0.00000000
     atom    3 type  1   force =    -0.00003666    0.00000000   -0.00000000
     atom    4 type  1   force =     0.00001518    0.00003608   -0.00000000
     atom    5 type  1   force =     0.00000000   -0.00000987    0.00000000
     atom    6 type  1   force =    -0.00001518    0.00003608   -0.00000000
     atom    7 type  1   force =    -0.00001518   -0.00003608    0.00000000
     atom    8 type  1   force =     0.00001518   -0.00003608   -0.00000000
     atom    9 type  1   force =    -0.00000000    0.00000987    0.00000000

     Total force =     0.000014     Total SCF correction =     0.000095
     SCF correction compared to forces is large: reduce conv_thr to get better values

     Computing stress (Cartesian axis) and pressure

     negative rho (up, down):  8.573E-01 0.000E+00
          total   stress  (Ry/bohr**3)                   (kbar)     P=     2703.11
   0.00339566   0.00000000   0.00000000          499.52        0.00        0.00
   0.00000000   0.00238537   0.00000000            0.00      350.90        0.00
   0.00000000   0.00000000   0.04934504            0.00        0.00     7258.91

     BFGS Geometry Optimization
     Energy error            =      0.0E+00 Ry
     Gradient error          =      5.9E-06 Ry/Bohr

     bfgs converged in   1 scf cycles and   0 bfgs steps
     (criteria: energy <  1.0E-05 Ry, force <  1.0E-04 Ry/Bohr)

     End of BFGS Geometry Optimization

     Final energy             =   -1273.0451061513 Ry
Begin final coordinates

ATOMIC_POSITIONS (angstrom)
Ta            0.0000000000        0.0000000000        1.0000000000
Ta            3.3058000000        0.0000000000        1.0000000000
Ta            6.6116000000        0.0000000000        1.0000000000
Ta            1.6529000000        2.3375535972        1.0000000000
Ta            4.9587000000        2.3375535972        1.0000000000
Ta            8.2645000000        2.3375535972        1.0000000000
Ta            3.3058000000        4.6751071945        1.0000000000
Ta            6.6116000000        4.6751071945        1.0000000000
Ta            9.9174000000        4.6751071945        1.0000000000
End final coordinates

     Writing all to output data dir outdir/pwscf.save/

     General routines

     Parallel routines

   This run was terminated on:  20:52: 4  14May2023

   JOB DONE.