     Program PWSCF v.7.2 starts on 15May2023 at  4:29:53

     Reading input from Ta_3x3x1_MD_velocity_0.in
Warning: card &CELL ignored
Warning: card / ignored

     Current dimensions of program PWSCF are:
     Max number of different atomic species (ntypx) = 10
     Max number of k-points (npk) =  40000
     Max angular momentum in pseudopotentials (lmaxx) =  4

     File outdir/pwscf.md deleted, as requested

     R & G space division:  proc/nbgrp/npool/nimage =      12
     Subspace diagonalization in iterative solution of the eigenvalue problem:
     a serial algorithm will be used

     Using Slab Decomposition

     bravais-lattice index     =            0
     lattice parameter (alat)  =      18.7412  a.u.
     unit-cell volume          =    9386.5802 (a.u.)^3
     number of atoms/cell      =           10
     number of atomic types    =            2
     number of electrons       =       118.00
     number of Kohn-Sham states=           71
     kinetic-energy cutoff     =      30.0000  Ry
     charge density cutoff     =     120.0000  Ry
     scf convergence threshold =      1.0E-06
     mixing beta               =       0.7000
     number of iterations used =            8  plain     mixing
     energy convergence thresh.=      0.0E+00
     force convergence thresh. =      0.0E+00
     Exchange-correlation=  SLA  PW   PBX  PBC
                           (   1   4   3   4   0   0   0)
     nstep                     =            3

     celldm(1)=  18.741170  celldm(2)=   0.000000  celldm(3)=   0.000000
     celldm(4)=   0.000000  celldm(5)=   0.000000  celldm(6)=   0.000000

     crystal axes: (cart. coord. in units of alat)
               a(1) = (   1.000000   0.000000   0.000000 )
               a(2) = (   0.500000   0.707107   0.000000 )
               a(3) = (   0.000000   0.000000   2.016658 )

     reciprocal axes: (cart. coord. in units 2 pi/alat)
               b(1) = (  1.000000 -0.707107  0.000000 )
               b(2) = (  0.000000  1.414213  0.000000 )
               b(3) = (  0.000000  0.000000  0.495870 )

     PseudoPot. # 1 for Ta read from file:
     q-e/pseudo/ta_pbe_v1.uspp.F.UPF
     MD5 check sum: f8bbe9446314a3b8ea5d9f3e3836c939
     Pseudo is Ultrasoft + core correction, Zval = 13.0
     Generated by new atomic code, or converted to UPF format
     Using radial grid of  921 points,  7 beta functions with:
                l(1) =   0
                l(2) =   0
                l(3) =   1
                l(4) =   1
                l(5) =   2
                l(6) =   2
                l(7) =   3
     Q(r) pseudized with  6 coefficients,  rinner =    1.300   1.300   1.300
                                                       1.300   1.300   1.300
                                                       1.300

     PseudoPot. # 2 for H  read from file:
     q-e/pseudo/h_pbe_v1.4.uspp.F.UPF
     MD5 check sum: 761ae9a214b05c3daf00ab9f6b793d6f
     Pseudo is Ultrasoft, Zval =  1.0
     Generated by new atomic code, or converted to UPF format
     Using radial grid of  615 points,  2 beta functions with:
                l(1) =   0
                l(2) =   0
     Q(r) pseudized with  8 coefficients,  rinner =    0.700

     atomic species   valence    mass     pseudopotential
        Ta            13.00   180.94788     Ta( 1.00)
        H              1.00     2.01400     H ( 1.00)

     No symmetry found

   Cartesian axes

     site n.     atom                  positions (alat units)
         1           Ta  tau(   1) = (   0.0000000   0.0000000   1.0083288  )
         2           Ta  tau(   2) = (   0.3333333   0.0000000   1.0083288  )
         3           Ta  tau(   3) = (   0.6666667   0.0000000   1.0083288  )
         4           Ta  tau(   4) = (   0.1666667   0.2357023   1.0083288  )
         5           Ta  tau(   5) = (   0.5000000   0.2357023   1.0083288  )
         6           Ta  tau(   6) = (   0.8333333   0.2357023   1.0083288  )
         7           Ta  tau(   7) = (   0.3333333   0.4714045   1.0083288  )
         8           Ta  tau(   8) = (   0.6666667   0.4714045   1.0083288  )
         9           Ta  tau(   9) = (   1.0000000   0.4714045   1.0083288  )
        10           H   tau(  10) = (   0.5041644   0.4033315   1.5124932  )

     number of k points=     1  Gaussian smearing, width (Ry)=  0.0100
                       cart. coord. in units 2pi/alat
        k(    1) = (   0.0000000   0.0000000   0.0000000), wk =   2.0000000

     Check: negative core charge=   -0.000002

     Initial potential from superposition of free atoms

     starting charge     117.9900, renormalised to     118.0000

     negative rho (up, down):  8.970E-01 0.000E+00
     Starting wfcs are  118 randomized atomic wfcs

     Self-consistent Calculation

     iteration #  1     ecut=    30.00 Ry     beta= 0.70
     Davidson diagonalization with overlap
     ethr =  1.00E-02,  avg # of iterations =  2.0

     Threshold (ethr) on eigenvalues was too large:
     Diagonalizing with lowered threshold

     Davidson diagonalization with overlap
     ethr =  9.46E-04,  avg # of iterations =  1.0

     negative rho (up, down):  8.933E-01 0.000E+00

     total energy              =   -1275.29319203 Ry
     estimated scf accuracy    <       1.15640215 Ry

[...]

     End of self-consistent calculation

          k = 0.0000 0.0000 0.0000 ( 26023 PWs)   bands (ev):

   -70.5771 -70.5376 -70.5371 -70.5351 -70.5346 -70.5066 -70.5050 -70.4999
   -70.4992 -37.2082 -37.1385 -37.1382 -37.1351 -37.1330 -37.1007 -37.1001
   -37.0996 -37.0993 -37.0911 -37.0880 -37.0760 -37.0758 -37.0471 -37.0470
   -37.0397 -37.0391 -37.0335 -37.0332 -36.9005 -36.8996 -36.6047 -36.4654
   -36.4651 -36.4628 -36.4628 -36.3221  -7.9576  -5.5773  -5.5767  -5.5756
    -5.5754  -4.9253  -4.9238  -3.5157  -3.5154  -3.3144  -3.2803  -3.2792
    -3.2787  -3.2787  -3.1059  -3.1057  -2.9280  -2.5541  -2.5415  -2.5415
    -2.5406  -2.4169  -2.4138  -2.4088  -2.3540  -2.3530  -1.9062  -1.9049
    -1.6773  -1.5856  -1.5853  -1.3276  -1.3276  -1.3274  -1.3266

     the Fermi energy is    -2.4010 ev

!    total energy              =   -1275.76166733 Ry
     estimated scf accuracy    <       0.00000042 Ry
     smearing contrib. (-TS)   =      -0.03421086 Ry
     internal energy E=F+TS    =   -1275.72745646 Ry

     convergence has been achieved in  29 iterations

[...]

     Forces acting on atoms (cartesian axes, Ry/au):

     atom    1 type  1   force =    -0.00006086    0.00017379    0.00010849
     atom    2 type  1   force =    -0.00059239   -0.00010927   -0.00040030
     atom    3 type  1   force =     0.00066220   -0.00012022   -0.00040640
     atom    4 type  1   force =     0.00011196   -0.00018612   -0.00004121
     atom    5 type  1   force =     0.00000941   -0.00001951    0.00161254
     atom    6 type  1   force =    -0.00011346   -0.00023497   -0.00004014
     atom    7 type  1   force =    -0.00005402    0.00021467    0.00142078
     atom    8 type  1   force =     0.00000993    0.00017665    0.00151491
     atom    9 type  1   force =     0.00002987    0.00012076   -0.00004046
     atom   10 type  2   force =    -0.00000264   -0.00001578   -0.00372821
     The non-local contrib.  to forces
     atom    1 type  1   force =    -0.00008697   -0.00109497    0.00513067
     atom    2 type  1   force =    -0.00135991    0.00030710    0.00420975
     atom    3 type  1   force =     0.00145035    0.00028093    0.00418106
     atom    4 type  1   force =    -0.00001011   -0.00059250    0.00387665
     atom    5 type  1   force =     0.00007821    0.00122548    0.00634933
     atom    6 type  1   force =    -0.00005912   -0.00072585    0.00391535
     atom    7 type  1   force =     0.00232458    0.00057188    0.00591205
     atom    8 type  1   force =    -0.00243880    0.00047936    0.00597186
     atom    9 type  1   force =     0.00011190   -0.00045569    0.00321444
     atom   10 type  2   force =    -0.00000087   -0.00001337   -0.00101328
     The ionic contribution  to forces
     atom    1 type  1   force =    -0.00032546    0.03601887   -0.32785342
     atom    2 type  1   force =     0.00693534   -0.00797019   -0.30956715
     atom    3 type  1   force =    -0.00661488   -0.00928554   -0.30919148
     atom    4 type  1   force =    -0.02537559   -0.00294585   -0.30858491
     atom    5 type  1   force =    -0.00097561   -0.03795733   -0.37135297
     atom    6 type  1   force =     0.02632860   -0.00390116   -0.31013577
     atom    7 type  1   force =    -0.04017484    0.01343775   -0.36447290
     atom    8 type  1   force =     0.03924175    0.01394934   -0.36716157
     atom    9 type  1   force =     0.00096890   -0.00142386   -0.29151684
     atom   10 type  2   force =    -0.00000822    0.00007798    2.95983701
     The local contribution  to forces
     atom    1 type  1   force =     0.00015811   -0.03567027    0.32310212
     atom    2 type  1   force =    -0.00607033    0.00719592    0.30552141
     atom    3 type  1   force =     0.00591244    0.00843967    0.30514916
     atom    4 type  1   force =     0.02526294    0.00356709    0.30514002
     atom    5 type  1   force =     0.00101236    0.03733536    0.36655536
     atom    6 type  1   force =    -0.02625322    0.00426205    0.30662736
     atom    7 type  1   force =     0.03840622   -0.01327585    0.35986608
     atom    8 type  1   force =    -0.03764955   -0.01393169    0.36258854
     atom    9 type  1   force =    -0.00079431    0.00220140    0.28881045
     atom   10 type  2   force =     0.00000709   -0.00007610   -2.96252540
     The core correction contribution to forces
     atom    1 type  1   force =    -0.00001103    0.00027610    0.00031397
     atom    2 type  1   force =    -0.00020158    0.00006502    0.00017018
     atom    3 type  1   force =     0.00021463    0.00006235    0.00017019
     atom    4 type  1   force =     0.00009772   -0.00025329    0.00023508
     atom    5 type  1   force =    -0.00001734   -0.00045160    0.00056602
     atom    6 type  1   force =    -0.00008206   -0.00025275    0.00024625
     atom    7 type  1   force =    -0.00029497    0.00020007    0.00061701
     atom    8 type  1   force =     0.00030125    0.00020421    0.00062526
     atom    9 type  1   force =    -0.00000785    0.00014816    0.00023636
     atom   10 type  2   force =     0.00000000    0.00000000    0.00000000
     The Hubbard contrib.    to forces
     atom    1 type  1   force =     0.00000000    0.00000000    0.00000000
     atom    2 type  1   force =     0.00000000    0.00000000    0.00000000
     atom    3 type  1   force =     0.00000000    0.00000000    0.00000000
     atom    4 type  1   force =     0.00000000    0.00000000    0.00000000
     atom    5 type  1   force =     0.00000000    0.00000000    0.00000000
     atom    6 type  1   force =     0.00000000    0.00000000    0.00000000
     atom    7 type  1   force =     0.00000000    0.00000000    0.00000000
     atom    8 type  1   force =     0.00000000    0.00000000    0.00000000
     atom    9 type  1   force =     0.00000000    0.00000000    0.00000000
     atom   10 type  2   force =     0.00000000    0.00000000    0.00000000
     The SCF correction term to forces
     atom    1 type  1   force =     0.00000000    0.00000000   -0.00000000
     atom    2 type  1   force =     0.00000000    0.00000000   -0.00000000
     atom    3 type  1   force =    -0.00000000    0.00000000   -0.00000000
     atom    4 type  1   force =     0.00000000    0.00000000   -0.00000000
     atom    5 type  1   force =    -0.00000000   -0.00000000   -0.00000000
     atom    6 type  1   force =    -0.00000000    0.00000000   -0.00000000
     atom    7 type  1   force =    -0.00000000   -0.00000000   -0.00000000
     atom    8 type  1   force =     0.00000000   -0.00000000   -0.00000000
     atom    9 type  1   force =    -0.00000000   -0.00000000   -0.00000000
     atom   10 type  2   force =     0.00000082   -0.00000265    0.00002603

     Total force =     0.003728     Total SCF correction =     0.000026

     Molecular Dynamics Calculation

     Starting temperature  =   300.00 K

     temperature is set once at start

     mass Ta               =   180.95
     mass H                =     2.01
     Time step             =   100.00 a.u.,  4.8378 femto-seconds

     Entering Dynamics:    iteration =     1
                           time      =   0.0048 pico-seconds

ATOMIC_POSITIONS (angstrom)
Ta            0.0000000000        0.0000000000       10.0000000000    0   0   0
Ta            3.3057996767        0.0000000000       10.0000000000    0   0   0
Ta            6.6116003452        0.0000000000       10.0000000000    0   0   0
Ta            1.6529003342        2.3375539952       10.0000000000    0   0   0
Ta            4.9587000109        2.3375539952       10.0000000000    0   0   0
Ta            8.2644996877        2.3375539952       10.0000000000    0   0   0
Ta            3.3057996767        4.6751069986       10.0000000000    0   0   0
Ta            6.6116003452        4.6751069986       10.0000000000    0   0   0
Ta            9.9174000219        4.6751069986       10.0000000000    0   0   0
H             5.0449657739        4.0653391013       14.9456228978

     kinetic energy (Ekin) =           0.00285013 Ry
     temperature           =         300.00000000 K
     Ekin + Etot (const)   =       -1275.75881720 Ry

     File outdir/pwscf.msd.dat deleted, as requested

     Writing config-only to output data dir outdir/pwscf.save/
     NEW-OLD atomic charge density approx. for the potential

[...]

     Writing config-only to output data dir outdir/pwscf.save/
     NEW-OLD atomic charge density approx. for the potential

     Check: negative core charge=   -0.000002

[...]

     Self-consistent Calculation

[...]

     total energy              =   -1275.76258547 Ry
     estimated scf accuracy    <       0.00001202 Ry

     iteration # 12     ecut=    30.00 Ry     beta= 0.70
     Davidson diagonalization with overlap
     ethr =  1.02E-08,  avg # of iterations =  2.0

[...]

     End of self-consistent calculation

          k = 0.0000 0.0000 0.0000 ( 26023 PWs)   bands (ev):

   -70.5754 -70.5362 -70.5353 -70.5336 -70.5326 -70.5048 -70.5036 -70.4981
   -70.4972 -37.2063 -37.1370 -37.1363 -37.1334 -37.1305 -37.0993 -37.0984
   -37.0979 -37.0975 -37.0894 -37.0861 -37.0740 -37.0736 -37.0458 -37.0451
   -37.0381 -37.0373 -37.0319 -37.0314 -36.8988 -36.8979 -36.6030 -36.4641
   -36.4636 -36.4610 -36.4608 -36.3205  -7.9554  -5.5755  -5.5747  -5.5734
    -5.5732  -4.9235  -4.9215  -3.5138  -3.5134  -3.3127  -3.2783  -3.2766
    -3.2761  -3.2759  -3.1036  -3.1031  -2.9266  -2.5558  -2.5389  -2.5388
    -2.5379  -2.4142  -2.4114  -2.4053  -2.3517  -2.3499  -1.9033  -1.9017
    -1.6686  -1.5837  -1.5833  -1.3251  -1.3249  -1.3246  -1.3240

     the Fermi energy is    -2.3984 ev

!    total energy              =   -1275.76258550 Ry
     estimated scf accuracy    <       0.00000039 Ry
     smearing contrib. (-TS)   =      -0.03410490 Ry
     internal energy E=F+TS    =   -1275.72848061 Ry

     convergence has been achieved in  12 iterations

     negative rho (up, down):  8.947E-01 0.000E+00

     Forces acting on atoms (cartesian axes, Ry/au):

     atom    1 type  1   force =    -0.00032144    0.00023267    0.00023305
     atom    2 type  1   force =    -0.00048798    0.00002199   -0.00053763
     atom    3 type  1   force =     0.00079371   -0.00007986   -0.00049467
     atom    4 type  1   force =     0.00037216   -0.00017224   -0.00017501
     atom    5 type  1   force =    -0.00012200   -0.00015669    0.00185347
     atom    6 type  1   force =    -0.00021338   -0.00032159   -0.00010934
     atom    7 type  1   force =    -0.00009567    0.00022037    0.00172489
     atom    8 type  1   force =     0.00004587    0.00010518    0.00209015
     atom    9 type  1   force =     0.00001944    0.00016180   -0.00012708
     atom   10 type  2   force =     0.00000929   -0.00001162   -0.00445784
     The non-local contrib.  to forces
     atom    1 type  1   force =    -0.00037430   -0.00151486    0.00573688
     atom    2 type  1   force =    -0.00148506    0.00062484    0.00439121
     atom    3 type  1   force =     0.00186041    0.00042406    0.00433744
     atom    4 type  1   force =     0.00030683   -0.00059101    0.00398412
     atom    5 type  1   force =     0.00011341    0.00157650    0.00692903
     atom    6 type  1   force =    -0.00039808   -0.00108460    0.00416612
     atom    7 type  1   force =     0.00290880    0.00061072    0.00637669
     atom    8 type  1   force =    -0.00330391    0.00035114    0.00651769
     atom    9 type  1   force =     0.00042991   -0.00051349    0.00327740
     atom   10 type  2   force =     0.00001419   -0.00001180   -0.00107173
     The ionic contribution  to forces
     atom    1 type  1   force =    -0.00137477    0.04089036   -0.33947178
     atom    2 type  1   force =     0.01025763   -0.00524601   -0.31539072
     atom    3 type  1   force =    -0.00890786   -0.00974330   -0.31367389
     atom    4 type  1   force =    -0.02487139   -0.00159052   -0.31237397
     atom    5 type  1   force =    -0.00322758   -0.04321851   -0.37854961
     atom    6 type  1   force =     0.02801744   -0.00509602   -0.31738453
     atom    7 type  1   force =    -0.04611361    0.01175732   -0.37414610
     atom    8 type  1   force =     0.04285176    0.01323733   -0.38379961
     atom    9 type  1   force =     0.00340976   -0.00107029   -0.29620547
     atom   10 type  2   force =    -0.00004137    0.00007964    3.03099569
     The local contribution  to forces
     atom    1 type  1   force =     0.00067905   -0.03984446    0.33333981
     atom    2 type  1   force =    -0.00823705    0.00466239    0.31012672
     atom    3 type  1   force =     0.00758508    0.00895673    0.30859456
     atom    4 type  1   force =     0.02514082    0.00232118    0.30773800
     atom    5 type  1   force =     0.00297262    0.04158607    0.37315734
     atom    6 type  1   force =    -0.02802493    0.00549594    0.31244956
     atom    7 type  1   force =     0.04348535   -0.01178131    0.36897843
     atom    8 type  1   force =    -0.04010122   -0.01373748    0.37863703
     atom    9 type  1   force =    -0.00358889    0.00243704    0.29206859
     atom   10 type  2   force =     0.00003703   -0.00008660   -3.03440429
     The core correction contribution to forces
     atom    1 type  1   force =    -0.00005485    0.00041506    0.00038515
     atom    2 type  1   force =    -0.00023696    0.00013954    0.00016895
     atom    3 type  1   force =     0.00030340    0.00012411    0.00015039
     atom    4 type  1   force =     0.00018397   -0.00032952    0.00022723
     atom    5 type  1   force =    -0.00005516   -0.00058515    0.00064360
     atom    6 type  1   force =    -0.00011844   -0.00032267    0.00027098
     atom    7 type  1   force =    -0.00036591    0.00019671    0.00073106
     atom    8 type  1   force =     0.00039008    0.00021234    0.00075237
     atom    9 type  1   force =    -0.00002153    0.00014172    0.00024986
     atom   10 type  2   force =     0.00000000    0.00000000    0.00000000
     The Hubbard contrib.    to forces
     atom    1 type  1   force =     0.00000000    0.00000000    0.00000000
     atom    2 type  1   force =     0.00000000    0.00000000    0.00000000
     atom    3 type  1   force =     0.00000000    0.00000000    0.00000000
     atom    4 type  1   force =     0.00000000    0.00000000    0.00000000
     atom    5 type  1   force =     0.00000000    0.00000000    0.00000000
     atom    6 type  1   force =     0.00000000    0.00000000    0.00000000
     atom    7 type  1   force =     0.00000000    0.00000000    0.00000000
     atom    8 type  1   force =     0.00000000    0.00000000    0.00000000
     atom    9 type  1   force =     0.00000000    0.00000000    0.00000000
     atom   10 type  2   force =     0.00000000    0.00000000    0.00000000
     The SCF correction term to forces
     atom    1 type  1   force =     0.00000000    0.00000000    0.00000000
     atom    2 type  1   force =    -0.00000000   -0.00000000    0.00000000
     atom    3 type  1   force =    -0.00000000    0.00000000    0.00000000
     atom    4 type  1   force =    -0.00000000    0.00000000    0.00000000
     atom    5 type  1   force =     0.00000000    0.00000000   -0.00000000
     atom    6 type  1   force =     0.00000000    0.00000000    0.00000000
     atom    7 type  1   force =    -0.00000000   -0.00000000   -0.00000000
     atom    8 type  1   force =     0.00000000    0.00000000   -0.00000000
     atom    9 type  1   force =    -0.00000000   -0.00000000    0.00000000
     atom   10 type  2   force =     0.00000237   -0.00000001   -0.00000046

     Total force =     0.004458     Total SCF correction =     0.000002

     Entering Dynamics:    iteration =     3
                           time      =   0.0145 pico-seconds

ATOMIC_POSITIONS (angstrom)
Ta            0.0000000000        0.0000000000       10.0000000000    0   0   0
Ta            3.3057996767        0.0000000000       10.0000000000    0   0   0
Ta            6.6116003452        0.0000000000       10.0000000000    0   0   0
Ta            1.6529003342        2.3375539952       10.0000000000    0   0   0
Ta            4.9587000109        2.3375539952       10.0000000000    0   0   0
Ta            8.2644996877        2.3375539952       10.0000000000    0   0   0
Ta            3.3057996767        4.6751069986       10.0000000000    0   0   0
Ta            6.6116003452        4.6751069986       10.0000000000    0   0   0
Ta            9.9174000219        4.6751069986       10.0000000000    0   0   0
H             5.1349824595        4.1958325786       14.8009056694

     kinetic energy (Ekin) =           0.00377537 Ry
     temperature           =         397.38884815 K
     Ekin + Etot (const)   =       -1275.75881014 Ry

     The maximum number of steps has been reached.

     End of molecular dynamics calculation

     diffusion coefficients :
     atom     1   D =       0.00000000 cm^2/s
     atom     2   D =       0.00000000 cm^2/s
     atom     3   D =       0.00000000 cm^2/s
     atom     4   D =       0.00000000 cm^2/s
     atom     5   D =       0.00000000 cm^2/s
     atom     6   D =       0.00000000 cm^2/s
     atom     7   D =       0.00000000 cm^2/s
     atom     8   D =       0.00000000 cm^2/s
     atom     9   D =       0.00000000 cm^2/s
     atom    10   D =       0.00011048 cm^2/s

     < D > =       0.00011048 cm^2/s

     Writing all to output data dir outdir/pwscf.save/

     General routines

     Parallel routines

   This run was terminated on:   4:31:58  15May2023

   JOB DONE.