     Program PWSCF v.7.2 starts on  4May2023 at 20:49:24

     Reading input from ta_cell.in
Warning: card &CELL ignored
Warning: card / ignored

     Current dimensions of program PWSCF are:
     Max number of different atomic species (ntypx) = 10
     Max number of k-points (npk) =  40000
     Max angular momentum in pseudopotentials (lmaxx) =  4
     Found identity + (  0.2500  0.0000  0.0000) symmetry
     This is a supercell, fractional translations are disabled
     Message from routine setup:
     using ibrav=0 with symmetry is DISCOURAGED, use correct ibrav instead

     R & G space division:  proc/nbgrp/npool/nimage =      12
     Subspace diagonalization in iterative solution of the eigenvalue problem:
     one sub-group per band group will be used

     Using Slab Decomposition

     bravais-lattice index     =            0
     lattice parameter (alat)  =      24.9882  a.u.
     unit-cell volume          =    7519.8255 (a.u.)^3
     number of atoms/cell      =           64
     number of atomic types    =            1
     number of electrons       =       832.00
     number of Kohn-Sham states=          499
     kinetic-energy cutoff     =      30.0000  Ry
     charge density cutoff     =     120.0000  Ry
     scf convergence threshold =      1.0E-08
     mixing beta               =       0.7000
     number of iterations used =            8  plain     mixing
     energy convergence thresh.=      1.0E-05
     force convergence thresh. =      1.0E-04
     Exchange-correlation= SLA  PW   PBE  PBE
                           (   1   4   3   4   0   0   0)
     nstep                     =           50

     celldm(1)=  24.988226  celldm(2)=   0.000000  celldm(3)=   0.000000
     celldm(4)=   0.000000  celldm(5)=   0.000000  celldm(6)=   0.000000

     crystal axes: (cart. coord. in units of alat)
               a(1) = (   1.000000   0.000000   0.000000 )
               a(2) = (   0.500000   0.707107   0.000000 )
               a(3) = (   0.000000   0.000000   0.681579 )

     reciprocal axes: (cart. coord. in units 2 pi/alat)
               b(1) = (  1.000000 -0.707107  0.000000 )
               b(2) = (  0.000000  1.414214  0.000000 )
               b(3) = (  0.000000  0.000000  1.467180 )

     PseudoPot. # 1 for Ta read from file:
     q-e/pseudo/ta_pbe_v1.uspp.F.UPF
     MD5 check sum: f8bbe9446314a3b8ea5d9f3e3836c939
     Pseudo is Ultrasoft + core correction, Zval = 13.0
     Generated by new atomic code, or converted to UPF format
     Using radial grid of  921 points,  7 beta functions with:
                l(1) =   0
                l(2) =   0
                l(3) =   1
                l(4) =   1
                l(5) =   2
                l(6) =   2
                l(7) =   3
     Q(r) pseudized with  6 coefficients,  rinner =    1.300   1.300   1.300
                                                       1.300   1.300   1.300
                                                       1.300

     atomic species   valence    mass     pseudopotential
        Ta            13.00   180.94788     Ta( 1.00)

      4 Sym. Ops. (no inversion) found

   Cartesian axes

     site n.     atom                  positions (alat units)
         1           Ta  tau(   1) = (   0.0000000   0.1767767   0.0756247  )
         2           Ta  tau(   2) = (   0.2500000   0.1767767   0.0756247  )
         3           Ta  tau(   3) = (   0.5000000   0.1767767   0.0756247  )
         4           Ta  tau(   4) = (   0.7500000   0.1767767   0.0756247  )
         5           Ta  tau(   5) = (   0.1250000   0.3535534   0.0756247  )
         6           Ta  tau(   6) = (   0.3750000   0.3535534   0.0756247  )
         7           Ta  tau(   7) = (   0.6250000   0.3535534   0.0756247  )
         8           Ta  tau(   8) = (   0.8750000   0.3535534   0.0756247  )
         9           Ta  tau(   9) = (   0.2500000   0.5303301   0.0756247  )
        10           Ta  tau(  10) = (   0.5000000   0.5303301   0.0756247  )
        11           Ta  tau(  11) = (   0.7500000   0.5303301   0.0756247  )
        12           Ta  tau(  12) = (   1.0000000   0.5303301   0.0756247  )
        13           Ta  tau(  13) = (   0.3750000   0.7071068   0.0756247  )
        14           Ta  tau(  14) = (   0.6250000   0.7071068   0.0756247  )
        15           Ta  tau(  15) = (   0.8750000   0.7071068   0.0756247  )
        16           Ta  tau(  16) = (   1.1250000   0.7071068   0.0756247  )
        17           Ta  tau(  17) = (   0.0000000   0.0000000   0.2524014  )
        18           Ta  tau(  18) = (   0.2500000   0.0000000   0.2524014  )
        19           Ta  tau(  19) = (   0.5000000   0.0000000   0.2524014  )
        20           Ta  tau(  20) = (   0.7500000   0.0000000   0.2524014  )
        21           Ta  tau(  21) = (   0.1250000   0.1767767   0.2524014  )
        22           Ta  tau(  22) = (   0.3750000   0.1767767   0.2524014  )
        23           Ta  tau(  23) = (   0.6250000   0.1767767   0.2524014  )
        24           Ta  tau(  24) = (   0.8750000   0.1767767   0.2524014  )
        25           Ta  tau(  25) = (   0.2500000   0.3535534   0.2524014  )
        26           Ta  tau(  26) = (   0.5000000   0.3535534   0.2524014  )
        27           Ta  tau(  27) = (   0.7500000   0.3535534   0.2524014  )
        28           Ta  tau(  28) = (   1.0000000   0.3535534   0.2524014  )
        29           Ta  tau(  29) = (   0.3750000   0.5303301   0.2524014  )
        30           Ta  tau(  30) = (   0.6250000   0.5303301   0.2524014  )
        31           Ta  tau(  31) = (   0.8750000   0.5303301   0.2524014  )
        32           Ta  tau(  32) = (   1.1250000   0.5303301   0.2524014  )
        33           Ta  tau(  33) = (   0.0000000   0.1767767   0.4291781  )
        34           Ta  tau(  34) = (   0.2500000   0.1767767   0.4291781  )
        35           Ta  tau(  35) = (   0.5000000   0.1767767   0.4291781  )
        36           Ta  tau(  36) = (   0.7500000   0.1767767   0.4291781  )
        37           Ta  tau(  37) = (   0.1250000   0.3535534   0.4291781  )
        38           Ta  tau(  38) = (   0.3750000   0.3535534   0.4291781  )
        39           Ta  tau(  39) = (   0.6250000   0.3535534   0.4291781  )
        40           Ta  tau(  40) = (   0.8750000   0.3535534   0.4291781  )
        41           Ta  tau(  41) = (   0.2500000   0.5303301   0.4291781  )
        42           Ta  tau(  42) = (   0.5000000   0.5303301   0.4291781  )
        43           Ta  tau(  43) = (   0.7500000   0.5303301   0.4291781  )
        44           Ta  tau(  44) = (   1.0000000   0.5303301   0.4291781  )
        45           Ta  tau(  45) = (   0.3750000   0.7071068   0.4291781  )
        46           Ta  tau(  46) = (   0.6250000   0.7071068   0.4291781  )
        47           Ta  tau(  47) = (   0.8750000   0.7071068   0.4291781  )
        48           Ta  tau(  48) = (   1.1250000   0.7071068   0.4291781  )
        49           Ta  tau(  49) = (   0.0000000   0.0000000   0.6059547  )
        50           Ta  tau(  50) = (   0.2500000   0.0000000   0.6059547  )
        51           Ta  tau(  51) = (   0.5000000   0.0000000   0.6059547  )
        52           Ta  tau(  52) = (   0.7500000   0.0000000   0.6059547  )
        53           Ta  tau(  53) = (   0.1250000   0.1767767   0.6059547  )
        54           Ta  tau(  54) = (   0.3750000   0.1767767   0.6059547  )
        55           Ta  tau(  55) = (   0.6250000   0.1767767   0.6059547  )
        56           Ta  tau(  56) = (   0.8750000   0.1767767   0.6059547  )
        57           Ta  tau(  57) = (   0.2500000   0.3535534   0.6059547  )
        58           Ta  tau(  58) = (   0.5000000   0.3535534   0.6059547  )
        59           Ta  tau(  59) = (   0.7500000   0.3535534   0.6059547  )
        60           Ta  tau(  60) = (   1.0000000   0.3535534   0.6059547  )
        61           Ta  tau(  61) = (   0.3750000   0.5303301   0.6059547  )
        62           Ta  tau(  62) = (   0.6250000   0.5303301   0.6059547  )
        63           Ta  tau(  63) = (   0.8750000   0.5303301   0.6059547  )
        64           Ta  tau(  64) = (   1.1250000   0.5303301   0.6059547  )

     number of k points=     1  Gaussian smearing, width (Ry)=  0.0100
                       cart. coord. in units 2pi/alat
        k(    1) = (   0.0000000   0.0000000   0.0000000), wk =   2.0000000

     Initial potential from superposition of free atoms

     starting charge     831.9288, renormalised to     832.0000

     negative rho (up, down):  5.990E+00 0.000E+00
     Starting wfcs are  832 randomized atomic wfcs

     Self-consistent Calculation

     iteration #  1     ecut=    30.00 Ry     beta= 0.70
     Davidson diagonalization with overlap
     ethr =  1.00E-02,  avg # of iterations =  2.0

     Threshold (ethr) on eigenvalues was too large:
     Diagonalizing with lowered threshold

     Davidson diagonalization with overlap
     ethr =  4.51E-04,  avg # of iterations =  2.0

     negative rho (up, down):  6.008E+00 0.000E+00

     total energy              =   -9077.45453357 Ry
     estimated scf accuracy    <       3.97100651 Ry

[...]

     iteration #  6     ecut=    30.00 Ry     beta= 0.70
     Davidson diagonalization with overlap
     c_bands:  2 eigenvalues not converged
     ethr =  1.35E-06,  avg # of iterations = 20.0

[...]

     End of self-consistent calculation

          k = 0.0000 0.0000 0.0000 ( 20823 PWs)   bands (ev):

   -47.7736 -47.7327 -47.7327 -47.7327 -47.7327 -47.7182 -47.7182 -47.7127
   -47.6905 -47.6905 -47.6905 -47.6905 -47.6842 -47.6842 -47.6800 -47.6800
   -47.6800 -47.6800 -47.6765 -47.6765 -47.6755 -47.6755 -47.6754 -47.6754
   -47.6657 -47.6657 -47.6653 -47.6626 -47.6450 -47.6450 -47.6450 -47.6450
   -47.6189 -47.6139 -47.6139 -47.6138 -47.6138 -47.6065 -47.6065 -47.5495
   -47.5495 -47.5495 -47.5495 -47.5467 -47.5334 -47.5334 -47.5225 -47.5225
   -47.5225 -47.5225 -47.5120 -47.5120 -47.4857 -47.4845 -47.4845 -47.4845
   -47.4845 -47.4492 -47.4492 -47.4492 -47.4492 -47.4457 -47.4457 -47.4057
   -14.9909 -14.9909 -14.9909 -14.9909 -14.9891 -14.9200 -14.8309 -14.8309
   -14.8166 -14.8166 -14.8166 -14.8166 -14.8069 -14.8069 -14.7947 -14.7947
   -14.7947 -14.7947 -14.7881 -14.7881 -14.7881 -14.7881 -14.7878 -14.7878
   -14.7368 -14.6716 -14.6716 -14.6715 -14.6715 -14.6668 -14.6668 -14.6668
   -14.6668 -14.6540 -14.6309 -14.6309 -14.6309 -14.6309 -14.6199 -14.6196
   -14.6196 -14.6196 -14.6196 -14.6004 -14.5699 -14.5699 -14.5699 -14.5699
   -14.4720 -14.4720 -14.4720 -14.4720 -14.4075 -14.4075 -14.4065 -14.4028
   -14.4028 -14.3970 -14.3970 -14.3730 -14.3586 -14.3586 -14.3586 -14.3586
   -14.3512 -14.3178 -14.3178 -14.3165 -14.3165 -14.3106 -14.3106 -14.3106
   -14.3106 -14.2998 -14.2997 -14.2782 -14.2782 -14.2450 -14.2450 -14.2450
   -14.2450 -14.2247 -14.2049 -14.2049 -14.1962 -14.1956 -14.1956 -14.1917
   -14.1837 -14.1837 -14.1837 -14.1837 -14.1791 -14.1791 -14.1647 -14.1500
   -14.1500 -14.1500 -14.1500 -14.1474 -14.1474 -14.1132 -14.1132 -14.1033
   -14.1033 -14.1033 -14.1033 -14.0960 -14.0960 -14.0576 -14.0576 -14.0356
   -14.0356 -14.0356 -14.0356 -14.0356 -14.0282 -14.0282 -13.9998 -13.9998
[...]
     atom   46 type  1   force =     0.00000021   -0.00000057   -0.00000010
     atom   47 type  1   force =     0.00000004    0.00000057   -0.00000006
     atom   48 type  1   force =    -0.00000004   -0.00000057   -0.00000006
     atom   49 type  1   force =     0.00000000    0.00000000    0.00000040
     atom   50 type  1   force =     0.00000018   -0.00000000    0.00000041
     atom   51 type  1   force =     0.00000000    0.00000000    0.00000037
     atom   52 type  1   force =    -0.00000018    0.00000000    0.00000041
     atom   53 type  1   force =     0.00000040   -0.00000025    0.00000033
     atom   54 type  1   force =    -0.00000023   -0.00000079    0.00000034
     atom   55 type  1   force =     0.00000022   -0.00000038    0.00000034
     atom   56 type  1   force =    -0.00000040   -0.00000066    0.00000033
     atom   57 type  1   force =    -0.00000000    0.00000000    0.00000027
     atom   58 type  1   force =     0.00000000   -0.00000008    0.00000024
     atom   59 type  1   force =     0.00000000    0.00000000    0.00000027
     atom   60 type  1   force =    -0.00000000    0.00000008    0.00000024
     atom   61 type  1   force =    -0.00000040    0.00000025    0.00000033
     atom   62 type  1   force =     0.00000040    0.00000066    0.00000033
     atom   63 type  1   force =    -0.00000022    0.00000038    0.00000034
     atom   64 type  1   force =     0.00000023    0.00000079    0.00000034
     The Hubbard contrib.    to forces
     atom    1 type  1   force =     0.00000000    0.00000000    0.00000000
     atom    2 type  1   force =     0.00000000    0.00000000    0.00000000
     atom    3 type  1   force =     0.00000000    0.00000000    0.00000000
     atom    4 type  1   force =     0.00000000    0.00000000    0.00000000
     atom    5 type  1   force =     0.00000000    0.00000000    0.00000000
     atom    6 type  1   force =     0.00000000    0.00000000    0.00000000
     atom    7 type  1   force =     0.00000000    0.00000000    0.00000000
     atom    8 type  1   force =     0.00000000    0.00000000    0.00000000
     atom    9 type  1   force =     0.00000000    0.00000000    0.00000000
     atom   10 type  1   force =     0.00000000    0.00000000    0.00000000
     atom   11 type  1   force =     0.00000000    0.00000000    0.00000000
     atom   12 type  1   force =     0.00000000    0.00000000    0.00000000
     atom   13 type  1   force =     0.00000000    0.00000000    0.00000000
     atom   14 type  1   force =     0.00000000    0.00000000    0.00000000
     atom   15 type  1   force =     0.00000000    0.00000000    0.00000000
     atom   16 type  1   force =     0.00000000    0.00000000    0.00000000
     atom   17 type  1   force =     0.00000000    0.00000000    0.00000000
     atom   18 type  1   force =     0.00000000    0.00000000    0.00000000
     atom   19 type  1   force =     0.00000000    0.00000000    0.00000000
     atom   20 type  1   force =     0.00000000    0.00000000    0.00000000
     atom   21 type  1   force =     0.00000000    0.00000000    0.00000000
     atom   22 type  1   force =     0.00000000    0.00000000    0.00000000
     atom   23 type  1   force =     0.00000000    0.00000000    0.00000000
     atom   24 type  1   force =     0.00000000    0.00000000    0.00000000
     atom   25 type  1   force =     0.00000000    0.00000000    0.00000000
     atom   26 type  1   force =     0.00000000    0.00000000    0.00000000
     atom   27 type  1   force =     0.00000000    0.00000000    0.00000000
     atom   28 type  1   force =     0.00000000    0.00000000    0.00000000
     atom   29 type  1   force =     0.00000000    0.00000000    0.00000000
     atom   30 type  1   force =     0.00000000    0.00000000    0.00000000
     atom   31 type  1   force =     0.00000000    0.00000000    0.00000000
     atom   32 type  1   force =     0.00000000    0.00000000    0.00000000
     atom   33 type  1   force =     0.00000000    0.00000000    0.00000000
     atom   34 type  1   force =     0.00000000    0.00000000    0.00000000
     atom   35 type  1   force =     0.00000000    0.00000000    0.00000000
     atom   36 type  1   force =     0.00000000    0.00000000    0.00000000
     atom   37 type  1   force =     0.00000000    0.00000000    0.00000000
     atom   38 type  1   force =     0.00000000    0.00000000    0.00000000
     atom   39 type  1   force =     0.00000000    0.00000000    0.00000000
     atom   40 type  1   force =     0.00000000    0.00000000    0.00000000
     atom   41 type  1   force =     0.00000000    0.00000000    0.00000000
     atom   42 type  1   force =     0.00000000    0.00000000    0.00000000
     atom   43 type  1   force =     0.00000000    0.00000000    0.00000000
     atom   44 type  1   force =     0.00000000    0.00000000    0.00000000
     atom   45 type  1   force =     0.00000000    0.00000000    0.00000000
     atom   46 type  1   force =     0.00000000    0.00000000    0.00000000
     atom   47 type  1   force =     0.00000000    0.00000000    0.00000000
     atom   48 type  1   force =     0.00000000    0.00000000    0.00000000
     atom   49 type  1   force =     0.00000000    0.00000000    0.00000000
     atom   50 type  1   force =     0.00000000    0.00000000    0.00000000
     atom   51 type  1   force =     0.00000000    0.00000000    0.00000000
     atom   52 type  1   force =     0.00000000    0.00000000    0.00000000
     atom   53 type  1   force =     0.00000000    0.00000000    0.00000000
     atom   54 type  1   force =     0.00000000    0.00000000    0.00000000
     atom   55 type  1   force =     0.00000000    0.00000000    0.00000000
     atom   56 type  1   force =     0.00000000    0.00000000    0.00000000
     atom   57 type  1   force =     0.00000000    0.00000000    0.00000000
     atom   58 type  1   force =     0.00000000    0.00000000    0.00000000
     atom   59 type  1   force =     0.00000000    0.00000000    0.00000000
     atom   60 type  1   force =     0.00000000    0.00000000    0.00000000
     atom   61 type  1   force =     0.00000000    0.00000000    0.00000000
     atom   62 type  1   force =     0.00000000    0.00000000    0.00000000
     atom   63 type  1   force =     0.00000000    0.00000000    0.00000000
     atom   64 type  1   force =     0.00000000    0.00000000    0.00000000
     The SCF correction term to forces
     atom    1 type  1   force =    -0.00000000    0.00000406    0.00000037
     atom    2 type  1   force =     0.00000455    0.00000108    0.00000147
     atom    3 type  1   force =    -0.00000000   -0.00000130    0.00000371
     atom    4 type  1   force =    -0.00000455    0.00000108    0.00000147
     atom    5 type  1   force =    -0.00000285    0.00000336    0.00000033
     atom    6 type  1   force =     0.00000285   -0.00000336    0.00000033
     atom    7 type  1   force =    -0.00000285   -0.00000336    0.00000033
     atom    8 type  1   force =     0.00000285    0.00000336    0.00000033
     atom    9 type  1   force =    -0.00000455   -0.00000108    0.00000147
     atom   10 type  1   force =     0.00000000   -0.00000406    0.00000037
     atom   11 type  1   force =     0.00000455   -0.00000108    0.00000147
     atom   12 type  1   force =     0.00000000    0.00000130    0.00000371
     atom   13 type  1   force =    -0.00000173   -0.00000000    0.00000195
     atom   14 type  1   force =     0.00000173    0.00000000    0.00000195
     atom   15 type  1   force =     0.00000649   -0.00000000    0.00000565
     atom   16 type  1   force =    -0.00000649    0.00000000    0.00000565
     atom   17 type  1   force =     0.00000000   -0.00000000    0.00000262
     atom   18 type  1   force =     0.00000735   -0.00000000    0.00000203
     atom   19 type  1   force =     0.00000000   -0.00000000    0.00000104
     atom   20 type  1   force =    -0.00000735    0.00000000    0.00000203
     atom   21 type  1   force =     0.00000083    0.00000069    0.00000142
     atom   22 type  1   force =     0.00000659   -0.00000432    0.00000093
     atom   23 type  1   force =    -0.00000659   -0.00000432    0.00000093
     atom   24 type  1   force =    -0.00000083    0.00000069    0.00000142
     atom   25 type  1   force =    -0.00000000   -0.00000000   -0.00000071
     atom   26 type  1   force =     0.00000000   -0.00000538   -0.00000098
     atom   27 type  1   force =     0.00000000   -0.00000000   -0.00000071
     atom   28 type  1   force =    -0.00000000    0.00000538   -0.00000098
     atom   29 type  1   force =    -0.00000083   -0.00000069    0.00000142
     atom   30 type  1   force =     0.00000083   -0.00000069    0.00000142
     atom   31 type  1   force =     0.00000659    0.00000432    0.00000093
     atom   32 type  1   force =    -0.00000659    0.00000432    0.00000093
     atom   33 type  1   force =    -0.00000000    0.00000046    0.00000062
     atom   34 type  1   force =     0.00000437   -0.00000192   -0.00000007
     atom   35 type  1   force =     0.00000000   -0.00000374   -0.00000199
     atom   36 type  1   force =    -0.00000437   -0.00000192   -0.00000007
     atom   37 type  1   force =    -0.00000236    0.00000346    0.00000070
     atom   38 type  1   force =     0.00000236   -0.00000346    0.00000070
     atom   39 type  1   force =    -0.00000236   -0.00000346    0.00000070
     atom   40 type  1   force =     0.00000236    0.00000346    0.00000070
     atom   41 type  1   force =    -0.00000437    0.00000192   -0.00000007
     atom   42 type  1   force =     0.00000000   -0.00000046    0.00000062
     atom   43 type  1   force =     0.00000437    0.00000192   -0.00000007
     atom   44 type  1   force =    -0.00000000    0.00000374   -0.00000199
     atom   45 type  1   force =    -0.00000174    0.00000000   -0.00000076
     atom   46 type  1   force =     0.00000174   -0.00000000   -0.00000076
     atom   47 type  1   force =     0.00000552   -0.00000000   -0.00000377
     atom   48 type  1   force =    -0.00000552    0.00000000   -0.00000377
     atom   49 type  1   force =    -0.00000000    0.00000000   -0.00000377
     atom   50 type  1   force =     0.00000401    0.00000000   -0.00000363
     atom   51 type  1   force =    -0.00000000   -0.00000000   -0.00000309
     atom   52 type  1   force =    -0.00000401   -0.00000000   -0.00000363
     atom   53 type  1   force =     0.00000032    0.00000238   -0.00000251
     atom   54 type  1   force =     0.00000405    0.00000019   -0.00000251
     atom   55 type  1   force =    -0.00000405    0.00000019   -0.00000251
     atom   56 type  1   force =    -0.00000032    0.00000238   -0.00000251
     atom   57 type  1   force =    -0.00000000    0.00000000   -0.00000033
     atom   58 type  1   force =     0.00000000   -0.00000370   -0.00000019
     atom   59 type  1   force =    -0.00000000    0.00000000   -0.00000033
     atom   60 type  1   force =    -0.00000000    0.00000370   -0.00000019
     atom   61 type  1   force =    -0.00000032   -0.00000238   -0.00000251
     atom   62 type  1   force =     0.00000032   -0.00000238   -0.00000251
     atom   63 type  1   force =     0.00000405   -0.00000019   -0.00000251
     atom   64 type  1   force =    -0.00000405   -0.00000019   -0.00000251

     Total force =     0.000095     Total SCF correction =     0.000037
     SCF correction compared to forces is large: reduce conv_thr to get better values

     Computing stress (Cartesian axis) and pressure

     negative rho (up, down):  6.084E+00 0.000E+00
          total   stress  (Ry/bohr**3)                   (kbar)     P=       87.47
   0.00052822   0.00000000   0.00000000           77.70        0.00        0.00
   0.00000000   0.00072752   0.00000000            0.00      107.02        0.00
   0.00000000   0.00000000   0.00052800            0.00        0.00       77.67

     Energy error            =      1.5E-06 Ry
     Gradient error          =      1.5E-05 Ry/Bohr

     bfgs converged in   8 scf cycles and   7 bfgs steps
     (criteria: energy <  1.0E-05 Ry, force <  1.0E-04 Ry/Bohr)

     End of BFGS Geometry Optimization

     Final energy             =   -9080.1782655290 Ry

     File ./pwscf.bfgs deleted, as requested
Begin final coordinates

ATOMIC_POSITIONS (angstrom)
Ta            0.0000000000        2.3375520278        1.1266003817
Ta            3.3057989149        2.3375552352        1.1265998049
Ta            6.6116000000        2.3375537297        1.1266005566
Ta            9.9174010851        2.3375552352        1.1265998049
Ta            1.6528990575        4.6751060312        1.1266007328
Ta            4.9587009425        4.6751083578        1.1266007328
Ta            8.2644990575        4.6751083578        1.1266007328
Ta           11.5703009425        4.6751060312        1.1266007328
Ta            3.3058010851        7.0126591537        1.1265998049
Ta            6.6116000000        7.0126623611        1.1266003817
Ta            9.9173989149        7.0126591537        1.1265998049
Ta           13.2232000000        7.0126606592        1.1266005566
Ta            4.9587048675        9.3502143890        1.1266024465
Ta            8.2644951325        9.3502143890        1.1266024465
Ta           11.5703007410        9.3502143890        1.1266027565
Ta           14.8760992590        9.3502143890        1.1266027565
Ta            0.0000000000        0.0000000000        3.3797720090
Ta            3.3057982817        0.0000000000        3.3797725472
Ta            6.6116000000        0.0000000000        3.3797716007
Ta            9.9174017183        0.0000000000        3.3797725472
Ta            1.6529017010        2.3375522438        3.3797707930
Ta            4.9586960214        2.3375542641        3.3797710071
Ta            8.2645039786        2.3375542641        3.3797710071
Ta           11.5702982990        2.3375522438        3.3797707930
Ta            3.3058000000        4.6751071945        3.3797688011
Ta            6.6116000000        4.6751091091        3.3797686686
Ta            9.9174000000        4.6751071945        3.3797688011
Ta           13.2232000000        4.6751052799        3.3797686686
Ta            4.9586982990        7.0126621451        3.3797707930
Ta            8.2645017010        7.0126621451        3.3797707930
Ta           11.5702960214        7.0126601248        3.3797710071
Ta           14.8761039786        7.0126601248        3.3797710071
Ta            0.0000000000        2.3375506613        5.6328892420
Ta            3.3057983873        2.3375545168        5.6328908835
Ta            6.6116000000        2.3375536723        5.6328899471
Ta            9.9174016127        2.3375545168        5.6328908835
Ta            1.6528995353        4.6751059232        5.6328897102
Ta            4.9587004647        4.6751084658        5.6328897102
Ta            8.2644995353        4.6751084658        5.6328897102
Ta           11.5703004647        4.6751059232        5.6328897102
Ta            3.3058016127        7.0126598721        5.6328908835
Ta            6.6116000000        7.0126637276        5.6328892420
Ta            9.9173983873        7.0126598721        5.6328908835
Ta           13.2232000000        7.0126607166        5.6328899471
Ta            4.9587049478        9.3502143890        5.6328873905
Ta            8.2644950522        9.3502143890        5.6328873905
Ta           11.5702994701        9.3502143890        5.6328875377
Ta           14.8761005299        9.3502143890        5.6328875377
Ta            0.0000000000        0.0000000000        7.8860588298
Ta            3.3057969110        0.0000000000        7.8860584650
Ta            6.6116000000        0.0000000000        7.8860606318
Ta            9.9174030890        0.0000000000        7.8860584650
Ta            1.6529019559        2.3375531916        7.8860603093
Ta            4.9586947699        2.3375552100        7.8860604256
Ta            8.2645052301        2.3375552100        7.8860604256
Ta           11.5702980441        2.3375531916        7.8860603093
Ta            3.3058000000        4.6751071945        7.8860617623
Ta            6.6116000000        4.6751084236        7.8860632961
Ta            9.9174000000        4.6751071945        7.8860617623
Ta           13.2232000000        4.6751059654        7.8860632961
Ta            4.9586980441        7.0126611973        7.8860603093
Ta            8.2645019559        7.0126611973        7.8860603093
Ta           11.5702947699        7.0126591789        7.8860604256
Ta           14.8761052301        7.0126591789        7.8860604256
End final coordinates

     Writing all to output data dir ./pwscf.save/

     General routines

     Parallel routines

   This run was terminated on:  23:53:11   4May2023

   JOB DONE.